# MaxFreqExtractor features
# Channels: 2
# Frame size: 1024
# Hop size: 512
# Sample rate: 48000
# Frequencies per frame: 4
46 23 6 54
131 140 251 235
8 48 51 9
10 18 2 36
9 13 5 1
12 8 28 24
10 177 198 242
10 9 25 18
13 28 25 17
209 129 245 193
34 27 42 39
17 18 57 25
132 3 148 176
50 154 153 238
200 216 135 192
39 36 55 235
59 24 51 35
10 56 32 40
37 45 55 38
14 221 222 6
1 2 5 29
254 244 194 230
24 27 205 16
13 5 169 17
8 28 12 33
8 249 16 46
10 6 203 202
194 227 127 206
45 53 15 54
192 213 60 197
49 191 195 57
195 17 39 5
24 221 62 200
31 236 7 15
7 35 32 4
156 225 233 241
15 22 14 30
11 3 19 27
54 30 1 25
20 31 28 23
35 235 139 19
24 209 172 188
19 27 11 16
49 33 50 60
205 253 229 27
205 221 213 197
226 133 225 197
34 234 33 42
15 7 11 211
15 35 31 7
15 7 35 43
15 7 23 31
38 32 54 46
226 234 225 233
170 197 20 198
29 44 13 30
13 241 251 243
4 7 32 35
10 18 26 2
3 11 15 7
7 15 31 23
15 23 7 31
15 7 59 51
251 235 248 233
205 234 241 233
140 244 56 48
15 7 23 241
16 12 20 28
10 15 26 7
41 31 43 23
15 23 7 31
197 213 198 221
201 206 243 249
205 233 185 249
43 35 54 45
47 13 233 41
15 7 23 31
23 7 31 15
15 23 31 7
198 206 33 222
232 38 248 224
213 214 221 226
4 12 222 15
206 213 205 233
15 12 7 4
7 12 15 4
7 10 62 15
7 4 12 15
7 2 23 4
23 31 54 15
198 20 16 50
12 9 17 25
198 214 197 5
1 17 45 18
54 197 198 205
6 18 22 26
60 45 52 36
31 15 3 195
4 1 12 9
55 33 41 217
19 3 27 11
6 30 26 2
228 219 192 195
196 205 206 224
251 235 6 2
41 33 42 22
227 235 135 34
33 5 9 41
12 34 28 42
2 10 6 14
26 25 18 2
61 52 62 13
4 20 12 61
5 13 33 41
252 255 247 244
33 42 61 41
32 56 40 139
57 15 143 58
1 5 2 13
204 212 232 235
33 41 247 244
12 20 4 28
224 232 240 227
207 243 249 143
249 241 250 42
6 42 56 34
5 13 21 6
239 236 191 252
5 1 9 159
42 41 58 34
55 45 228 37
34 222 206 203
251 196 199 29
14 6 13 41
28 21 4 13
50 49 5 56
132 4 12 44
38 46 208 45
1 17 9 8
20 4 46 63
53 30 37 192
49 41 33 48
45 61 49 50
180 195 169 185
20 4 131 16
43 20 35 40
1 9 40 4
56 59 12 219
185 186 195 226
4 20 28 12
16 56 32 38
56 28 59 20
212 215 196 220
215 140 207 223
215 207 199 212
47 39 44 36
6 30 18 22
39 49 63 47
211 241 249 219
18 10 3 26
6 47 55 22
47 63 55 39
223 169 177 207
228 135 252 231
44 47 36 6
18 2 10 26
9 50 58 1
4 12 7 15
23 14 7 26
196 9 1 176
12 29 1 8
4 12 159 249
13 9 14 29
8 11 243 24
28 12 196 31
198 214 205 206
49 243 179 50
37 200 203 53
60 44 57 36
47 39 34 57
35 61 246 238
198 206 213 197
5 29 13 21
8 230 234 222
44 60 36 46
9 131 128 25
8 12 4 1
10 54 2 46
1 17 13 2
8 4 227 20
4 8 7 221
14 18 13 6
13 60 5 55
63 39 139 241
5 240 6 50
16 24 205 57
5 27 206 59
7 9 13 2
13 11 3 5
7 15 31 23
35 43 50 58
7 250 135 15
3 11 19 27
214 35 43 32
212 178 234 215
170 62 38 222
46 55 62 219
27 19 35 11
54 18 26 2
15 19 3 7
4 43 12 40
233 234 242 226
31 23 44 47
23 15 7 31
13 5 21 47
197 178 242 198
221 234 205 222
235 207 219 203
243 249 199 241
225 241 226 197
9 247 17 204
28 12 31 15
2 46 38 7
25 1 9 17
25 17 43 244
214 198 222 20
35 9 1 32
36 44 216 35
49 33 57 41
2 43 42 7
15 192 7 23
5 21 41 29
7 15 41 12
1 237 44 150
7 4 20 28
234 242 206 255
16 41 8 154
10 15 26 6
43 35 7 59
13 5 15 35
7 15 31 23
15 7 31 46
23 15 46 38
23 198 31 35
214 206 234 198
234 142 214 206
34 198 206 240
15 11 7 23
214 213 233 36
206 222 50 34
6 22 14 30
54 48 53 58
36 9 62 2
42 48 56 50
12 60 175 199
48 55 49 50
11 19 27 55
54 46 13 62
12 34 61 28
242 226 214 29
6 30 5 176
179 177 176 1
227 213 235 197
246 197 254 213
63 251 33 243
246 237 245 254
4 12 28 20
5 9 160 26
40 32 17 48
39 55 203 28
2 33 37 46
189 6 5 190
32 40 1 17
12 37 3 20
8 4 1 25
32 47 35 12
4 242 208 7
5 13 49 57
5 1 21 9
9 1 29 13
4 7 40 12
57 34 48 58
220 24 148 212
200 4 239 151
212 24 215 220
12 4 20 28
235 215 220 212
9 1 159 12
4 56 204 32
11 8 16 245
171 168 245 253
24 207 12 8
205 16 4 22
12 177 20 4
161 213 184 214
477 232 224 227
139 222 136 221
4 9 12 1
58 12 4 42
31 15 23 7
192 236 244 44
41 57 42 58
204 38 13 207
23 7 31 15
18 216 200 176
59 43 38 46
244 12 154 31
219 216 225 83
253 238 254 30
43 40 223 59
183 145 80 83
7 31 23 4
56 40 32 59
117 41 35 7
32 195 106 215
56 32 40 48
101 109 102 199
162 41 250 27
169 161 15 18
198 199 214 14
41 238 57 254
35 43 40 32
1 48 23 2
41 42 153 240
234 250 5 128
23 7 31 76
184 168 145 176
149 32 200 133
35 43 13 234
141 107 54 157
8 222 158 92
177 185 103 169
230 227 83 153
99 103 96 123
36 52 39 57
14 126 219 231
193 128 63 194
103 100 240 118
15 23 197 63
99 8 107 11
10 216 2 26
202 158 201 252
47 22 34 44
5 207 21 70
205 221 197 213
171 197 213 168
207 32 46 37
104 140 168 205
143 140 159 249
147 163 197 9
19 46 13 45
45 233 167 31
97 32 98 179
217 155 13 18
46 249 205 31
233 151 249 48
163 212 171 22
31 21 5 15
20 45 114 48
212 196 168 22
171 168 14 227
59 233 56 234
13 159 156 135
32 214 198 163
166 182 205 221
42 6 168 171
45 219 37 203
104 140 120 143
114 113 98 147
56 40 43 59
104 22 6 120
98 48 85 69
26 235 2 168
17 45 25 37
36 163 20 207
143 155 140 249
85 69 224 240
205 221 161 206
143 235 140 108
155 253 139 52
233 205 221 222
45 15 12 227
16 9 234 10
171 4 199 187
12 167 162 4
24 3 8 4
34 35 128 194
48 51 56 32
129 230 130 229
88 1 104 212
168 97 96 113
114 106 75 5
64 73 89 67
104 169 215 97
39 195 84 13
193 189 166 112
34 62 148 33
232 222 243 26
8 141 251 235
211 129 3 39
85 90 246 86
215 34 50 58
60 63 210 47
157 158 97 98
174 194 193 166
162 178 205 6
178 97 177 171
197 213 198 209
222 168 206 113
233 234 85 83
89 40 43 32
174 173 245 246
98 110 126 83
3 159 89 245
10 71 68 120
113 98 97 114
81 82 43 168
234 69 233 250
200 205 221 97
16 8 24 229
1 10 25 2
29 236 126 151
8 30 14 24
28 52 60 44
171 7 192 207
246 96 112 245
137 51 58 121
3 34 174 154
34 172 168 188
45 37 61 3
1 32 114 163
7 33 34 229
159 135 132 236
168 171 109 27
160 172 45 196
130 42 113 140
37 45 143 135
11 8 18 208
249 168 233 184
179 47 80 98
40 128 236 239
150 149 226 133
64 179 192 160
145 15 129 55
2 10 18 9
119 252 236 1
15 23 7 22
236 14 34 38
14 229 140 6
151 35 10 26
168 171 184 160
3 167 214 198
245 246 178 46
34 51 50 33
10 84 25 9
96 84 112 100
98 114 94 155
209 210 84 87
114 123 98 113
145 146 89 101
8 1 24 17
59 91 23 75
169 12 170 50
63 255 75 137
246 248 156 132
1 157 2 4
9 1 8 10
153 137 98 56
173 174 125 209
55 84 68 180
220 223 25 199
166 182 18 103
100 103 220 169
172 131 175 210
42 47 48 32
9 5 16 1
7 55 15 4
36 146 52 60
158 236 33 252
148 151 5 140
43 40 7 89
100 116 103 171
222 10 26 169
24 8 36 44
75 63 228 137
153 3 165 58
2 18 1 11
50 55 145 236
69 111 173 165
17 168 27 1
25 9 61 12
120 104 14 146
32 35 113 48
25 9 1 155
202 86 85 166
103 119 111 100
145 165 119 174
130 174 169 189
39 42 34 14
45 61 173 209
160 163 207 223
14 139 203 219
40 11 2 174
47 34 39 50
168 219 36 235
8 27 24 11
54 38 168 55
249 250 145 222
200 214 198 203
119 103 54 251
203 67 167 45
55 39 168 52
83 167 119 195
194 174 193 130
39 55 238 254
129 193 83 165
174 166 173 111
39 55 59 42
10 26 144 9
103 6 100 150
13 156 14 140
233 32 85 249
29 13 248 44
4 102 20 206
60 12 63 58
154 129 246 254
4 12 86 15
39 47 145 36
204 207 169 90
38 54 39 165
43 11 59 53
100 103 169 116
14 22 6 30
2 251 235 20
255 239 243 39
130 246 146 204
159 156 143 235
4 12 255 135
14 30 6 233
5 13 59 43
10 9 43 40
171 163 168 187
32 48 6 35
37 45 61 38
63 138 137 47
37 38 53 54
8 207 160 176
11 137 153 27
190 4 12 174
137 129 4 63
50 246 34 49
63 47 55 39
246 4 53 54
6 91 106 68
4 64 36 31
1 17 9 56
16 24 2 8
9 25 10 1
249 168 250 233
160 204 24 168
43 69 34 42
41 57 86 49
160 200 203 51
3 16 8 138
4 20 169 40
165 173 39 63
53 33 132 1
12 157 4 165
29 25 7 35
239 203 167 219
18 2 27 23
19 135 246 132
44 61 62 47
1 29 9 12
10 58 2 26
42 58 25 34
16 229 33 129
10 26 2 25
50 34 14 59
8 16 23 39
52 55 4 36
155 83 139 6
240 224 160 232
55 229 245 48
166 56 165 35
242 241 226 228
181 216 200 56
13 14 41 29
173 168 218 8
1 17 2 5
58 170 5 51
243 9 227 240
174 35 43 160
171 153 199 154
126 194 110 210
103 67 119 75
55 246 52 148
39 220 47 223
23 14 243 166
160 43 23 163
7 15 4 2
7 23 31 209
59 43 40 168
163 39 205 51
48 1 53 20
9 25 26 10
184 187 216 38
129 10 145 253
165 208 44 181
59 56 190 40
145 129 103 153
22 6 173 210
137 119 129 145
246 126 60 52
114 123 98 113
1 74 73 246
16 11 19 8
223 162 36 60
42 187 168 158
155 25 147 235
206 45 151 205
55 52 44 36
7 46 33 45
224 243 227 240
103 204 187 220
55 145 129 130
174 111 210 103
153 119 231 150
148 222 40 235
157 141 125 149
128 8 244 37
133 149 245 246
199 196 9 235
7 233 15 234
3 37 53 19
3 183 11 58
40 32 20 1
55 148 47 151
216 200 224 194
156 159 32 129
40 4 173 35
55 38 54 156
10 2 9 26
39 55 47 22
63 54 62 46
39 228 23 180
103 111 175 98
111 103 67 54
103 119 210 193
252 156 130 159
136 235 37 55
27 209 16 210
14 2 10 23
1 25 9 17
12 4 28 20
249 14 38 153
210 34 168 54
129 165 145 63
246 160 116 34
227 243 155 79
200 84 74 87
153 248 243 251
36 52 39 63
11 17 27 20
8 228 226 214
191 183 10 164
46 38 10 156
239 231 37 38
81 255 204 196
160 168 179 163
163 16 126 245
161 119 210 162
61 75 248 72
110 126 190 174
52 145 49 153
184 110 74 211
181 145 165 39
35 246 2 51
35 43 23 7
63 7 207 23
23 110 7 20
224 204 239 212
32 7 15 48
104 5 120 68
15 31 33 41
15 7 12 31
249 241 233 225
165 134 173 119
54 246 53 210
39 119 103 55
129 165 47 166
31 23 7 55
129 11 36 39
33 160 34 15
225 226 15 234
12 250 242 8
198 206 250 249
142 43 40 53
177 222 40 178
7 15 23 35
12 4 15 20
156 42 250 140
31 32 15 7
233 241 249 225
205 166 18 165
226 173 156 249
55 3 246 245
6 14 209 30
153 137 166 63
173 210 7 4
103 100 236 119
119 51 116 4
34 15 50 6
12 33 34 4
243 2 251 248
197 198 38 205
213 5 29 28
23 54 20 249
62 46 45 116
173 71 174 87
219 153 203 137
56 40 174 15
226 45 242 43
140 244 64 182
51 153 198 35
16 25 3 57
10 2 233 26
31 15 12 156
10 3 62 46
32 40 15 222
250 156 97 140
53 46 37 62
213 255 250 241
47 30 22 6
221 183 222 216
49 4 7 50
149 225 133 242
12 15 7 4
199 207 215 223
51 48 63 37
241 63 242 134
59 51 56 54
8 185 102 186
201 202 171 168
30 147 211 165
8 243 11 58
6 14 30 18
26 2 17 18
24 9 17 180
170 169 8 30
7 61 44 212
227 56 59 240
41 22 21 33
147 155 139 235
153 237 154 71
235 51 101 303
196 204 220 13
13 1 5 17
191 236 188 239
9 40 53 45
43 40 49 232
35 42 43 235
41 33 34 42
197 198 222 250
21 29 9 235
170 234 214 242
33 226 158 242
6 5 22 42
49 163 50 160
251 171 227 32
22 21 12 15
36 60 54 62
12 29 212 30
42 41 40 49
1 9 243 25
231 228 34 33
29 1 5 2
42 34 28 40
9 13 25 1
197 221 198 225
208 192 195 216
57 58 193 34
5 13 21 8
9 8 1 243
12 4 28 20
9 25 149 133
16 27 24 153
243 156 27 251
48 10 9 32
109 51 60 48
238 254 37 215
48 186 56 32
44 60 117 125
215 172 199 48
210 194 48 51
27 11 24 8
120 28 42 38
20 4 38 54
53 145 249 146
4 161 125 13
10 6 26 22
178 177 200 226
14 109 199 254
13 169 29 42
142 141 157 158
226 166 19 16
161 126 162 82
35 51 18 230
40 208 43 132
7 23 15 30
31 28 255 239
232 207 223 196
53 37 5 54
126 237 254 246
15 30 27 31
176 160 202 254
208 195 192 153
35 43 166 192
31 205 165 206
27 31 28 19
252 225 255 156
150 149 225 116
142 150 158 86
119 154 32 153
8 24 11 153
249 233 250 216
159 28 194 197
19 3 27 7
48 56 32 57
32 35 51 48
19 35 7 39
8 16 3 25
104 14 22 167
11 27 221 47
231 45 33 7
23 20 200 7
230 173 255 100
39 209 210 63
34 5 52 233
254 197 166 8
47 27 11 244
226 38 225 10
169 177 185 87
178 177 216 185
178 35 221 51
7 35 4 51
7 242 15 11
59 43 31 56
43 213 167 35
15 31 7 23
43 59 104 3
159 143 195 42
245 175 172 197
19 3 15 7
42 219 34 15
45 46 11 43
15 31 7 59
15 7 31 12
5 205 206 221
7 15 45 47
4 20 53 40
22 168 32 40
85 69 208 86
152 155 244 228
205 245 197 213
26 71 7 44
19 8 3 16
10 15 7 26
208 192 8 11
91 75 165 249
7 23 14 15
160 107 176 123
197 31 198 246
226 234 242 198
221 177 206 222
249 241 233 115
219 143 255 140
45 233 2 249
48 32 163 44
147 150 163 51
165 92 25 166
3 18 2 104
244 116 103 119
7 4 12 54
27 11 14 3
27 86 47 85
40 43 24 20
59 56 52 55
205 221 216 121
15 7 59 141
38 46 54 51
248 36 56 44
172 188 180 198
23 28 170 202
34 50 28 58
177 178 28 25
57 49 33 200
17 25 1 9
13 1 5 21
41 60 46 56
60 34 63 52
5 224 195 242
8 36 11 44
40 56 66 10
208 216 200 192
225 133 43 229
206 29 198 13
32 35 7 40
20 5 13 4
15 7 31 12
7 15 33 49
7 31 4 23
206 221 205 177
250 226 222 249
206 205 214 234
22 14 6 3
7 4 15 12
2 35 7 43
15 7 59 35
23 7 15 31
15 7 31 38
11 197 198 27
221 225 197 241
134 214 206 198
198 2 10 15
59 15 55 56
7 2 10 15
7 15 23 31
7 15 23 31
15 7 31 12
15 3 7 51
20 7 31 4
15 35 43 34
20 4 28 12
6 30 22 14
253 245 254 181
