# MaxFreqExtractor features
# Channels: 2
# Frame size: 1024
# Hop size: 512
# Sample rate: 48000
# Frequencies per frame: 4
16 254 33 5
14 30 6 24
44 61 47 10
17 5 33 25
6 2 10 243
221 205 222 167
45 42 52 37
35 51 217 37
4 20 12 23
15 7 31 22
15 7 23 27
31 27 19 3
7 4 16 12
55 22 39 198
489 490 214 475
318 45 67 64
35 25 255 128
309 310 229 230
337 411 245 47
59 58 43 42
31 7 23 15
31 28 15 12
206 222 250 221
226 33 242 198
23 7 48 46
213 197 208 42
198 197 213 214
11 60 159 244
29 57 49 21
21 29 5 50
25 9 128 26
24 41 42 16
34 162 51 5
38 55 12 52
53 37 61 45
57 58 250 34
38 24 48 27
247 51 226 159
44 24 16 46
13 167 6 22
33 24 41 8
16 24 8 25
16 8 24 38
24 27 46 38
203 45 200 216
15 23 62 7
15 12 7 23
214 32 26 2
161 162 10 170
47 54 14 13
426 467 214 45
219 257 370 81
147 127 410 230
302 301 241 186
121 122 430 226
218 155 139 248
9 1 13 17
13 5 9 1
13 29 5 9
8 60 44 52
239 195 203 231
193 201 14 217
10 2 14 26
6 10 18 14
51 49 50 228
8 57 49 11
20 28 251 205
33 49 34 50
209 243 239 217
20 4 28 12
246 134 234 142
57 41 49 48
45 61 37 62
2 6 53 47
4 12 32 40
9 1 25 17
50 46 34 49
8 194 36 210
231 228 58 167
57 41 11 3
2 10 6 14
2 10 18 26
12 2 4 20
8 24 16 60
60 63 44 3
230 194 238 202
11 6 50 3
35 51 61 32
204 36 236 192
11 3 8 238
1 5 13 14
225 226 206 234
449 179 443 450
58 313 314 266
23 7 33 46
62 54 206 46
24 27 8 46
19 205 202 218
42 41 58 209
3 27 11 217
206 222 198 221
15 12 7 24
198 197 205 206
62 45 46 61
23 7 4 31
206 197 242 250
15 7 19 12
186 178 170 204
43 151 7 135
16 20 28 24
21 224 22 221
37 54 53 61
48 50 58 42
131 228 231 151
49 57 33 41
221 222 167 30
209 19 16 187
18 206 141 233
47 162 46 57
55 10 39 52
7 15 54 51
12 15 226 225
206 26 205 14
32 40 35 43
120 28 31 3
195 229 198 9
7 241 34 409
226 242 164 492
15 6 14 7
1 5 9 17
1 13 9 5
2 10 6 18
13 5 14 1
8 60 16 24
8 3 11 16
8 11 3 24
8 11 3 58
11 3 22 55
2 18 6 10
2 10 26 20
46 45 16 8
57 58 33 34
61 45 241 24
3 11 6 27
10 4 2 20
7 130 50 23
48 56 33 5
237 204 129 253
239 231 175 247
239 175 236 231
238 246 230 254
230 238 254 229
46 24 27 19
201 209 217 202
45 231 167 239
246 238 230 194
209 201 193 237
221 222 167 231
239 231 27 175
247 255 239 246
7 15 23 11
234 206 214 237
8 12 24 16
11 3 27 19
32 50 6 56
4 230 48 32
162 6 197 62
8 24 33 36
56 227 46 163
192 152 188 208
8 9 16 24
8 24 38 60
218 254 246 230
45 37 10 61
5 13 29 21
1 231 239 195
8 60 52 44
13 1 14 2
201 217 231 7
5 13 41 57
8 28 16 24
15 23 31 11
38 194 254 131
13 5 9 1
1 9 13 5
1 9 5 2
8 52 60 24
9 11 1 194
8 36 194 52
8 11 3 194
11 3 14 193
6 2 14 10
2 10 26 38
8 60 44 16
8 11 3 36
3 11 193 237
14 6 2 10
10 2 26 18
8 24 36 52
8 11 3 24
3 11 39 55
2 6 10 14
8 44 10 60
8 24 36 16
3 11 8 193
193 39 6 201
38 37 46 54
8 16 24 60
8 24 16 246
37 45 41 3
209 217 201 193
8 24 53 12
8 16 60 24
8 11 3 194
201 193 245 3
2 10 26 57
8 231 195 228
8 202 194 218
8 209 129 11
6 14 2 11
14 6 18 22
2 10 18 37
13 5 1 29
231 203 195 239
8 5 52 33
9 1 10 37
60 57 46 59
5 13 9 1
60 36 52 44
13 5 1 8
239 37 231 2
5 13 29 8
24 4 241 27
13 5 17 8
8 24 130 3
255 252 147 228
385 76 79 49
9 5 1 12
13 5 29 21
5 13 29 21
1 6 13 5
8 58 57 50
228 236 252 192
8 228 255 128
182 166 202 194
36 194 230 202
8 24 16 202
11 3 27 19
41 42 33 57
45 61 37 209
16 8 24 11
3 11 39 47
137 237 153 238
45 36 230 52
12 4 8 24
8 24 27 11
201 3 245 6
27 11 10 26
8 44 31 28
8 230 233 218
3 36 52 44
34 58 47 33
217 193 245 209
40 210 43 246
44 36 47 60
238 254 230 130
55 46 45 53
2 6 7 18
60 11 8 63
38 54 35 238
7 2 15 3
4 16 187 149
2 1 212 196
323 139 330 298
354 258 472 366
453 385 321 403
54 38 32 45
16 24 19 25
27 34 3 33
128 152 232 244
27 24 213 11
27 19 26 10
209 235 217 52
45 23 46 20
45 197 209 61
43 46 7 10
23 7 31 15
206 222 14 2
31 15 23 7
206 60 13 5
62 46 45 54
4 2 20 128
1 13 227 17
231 239 228 236
33 60 38 44
209 201 237 217
213 214 35 40
213 221 38 46
163 206 44 157
36 39 185 225
23 31 7 20
7 26 15 18
7 123 234 25
147 144 295 230
453 244 11 8
239 236 174 167
25 26 221 1
502 430 104 501
30 413 29 112
242 410 425 122
132 148 135 151
33 214 250 34
15 31 7 46
213 221 205 171
214 198 242 241
15 12 31 7
7 15 4 12
23 212 199 46
241 242 249 250
38 3 37 52
15 7 23 51
233 234 59 221
229 44 27 35
235 43 164 167
432 70 247 452
493 185 52 93
153 459 405 412
95 251 17 389
326 180 184 39
206 222 163 87
247 231 211 195
110 109 89 252
16 45 52 38
243 240 18 252
41 17 42 33
62 54 38 53
206 222 234 221
23 15 7 31
249 221 213 214
7 15 27 3
20 42 221 23
214 198 57 41
7 23 15 31
206 213 222 142
15 7 23 12
34 213 198 197
46 54 62 40
60 44 54 52
236 228 172 244
34 57 58 42
11 193 57 49
3 39 11 36
2 14 61 10
10 2 14 18
10 2 38 8
8 44 36 11
11 8 3 58
14 6 11 39
14 6 2 30
10 38 46 62
8 11 44 24
11 3 8 201
6 14 30 2
10 14 6 2
10 2 38 46
8 5 13 29
15 3 7 11
6 14 2 10
41 57 49 5
230 194 238 202
20 23 4 12
3 51 59 245
10 2 228 231
8 16 254 12
238 8 254 44
202 238 218 201
193 209 201 245
2 201 10 217
8 44 60 52
8 24 44 16
11 3 8 39
6 14 3 11
10 55 6 2
8 36 44 52
8 36 11 24
3 11 27 19
14 2 30 10
10 18 26 2
8 24 46 16
3 11 36 44
11 3 22 30
2 10 6 14
228 202 194 8
202 218 238 230
201 217 193 209
11 3 27 39
10 2 228 37
8 24 44 60
8 24 11 16
3 11 19 27
2 6 10 18
45 53 46 60
8 202 36 24
36 194 193 229
11 3 2 6
2 10 26 14
8 60 44 24
8 3 11 24
11 3 193 201
2 6 10 14
10 2 8 231
8 24 16 3
3 11 8 202
3 11 6 201
2 10 14 6
10 8 52 2
8 11 24 3
193 194 11 238
3 26 10 6
13 5 41 59
13 5 29 60
192 208 244 128
60 44 63 175
5 13 29 6
11 15 23 3
58 1 2 201
49 57 33 41
51 59 239 209
10 11 8 219
247 244 49 203
49 57 3 58
30 6 156 152
9 219 132 139
3 193 11 39
3 19 47 44
276 218 58 3
45 60 165 223
32 82 62 34
34 42 37 58
209 193 210 33
15 6 45 7
24 27 19 8
31 217 15 3
4 255 20 12
188 206 191 172
57 36 59 41
376 379 59 294
24 17 25 223
21 5 25 26
5 20 37 6
18 7 2 60
25 3 17 1
226 225 63 234
237 253 238 248
43 48 15 34
14 27 10 26
11 235 112 37
156 234 205 1
57 13 225 41
9 31 15 7
52 36 8 24
13 14 1 2
213 197 239 198
5 13 1 17
195 231 45 37
13 8 52 57
9 1 5 25
52 60 38 44
8 62 206 16
38 37 175 40
165 166 160 163
199 215 196 435
98 410 432 53
54 53 62 7
52 36 60 54
41 59 57 49
34 50 6 42
57 41 58 55
202 238 209 217
201 193 209 237
2 10 239 175
10 2 26 18
8 238 194 246
8 194 230 238
193 194 201 209
201 193 237 209
239 10 2 231
8 11 24 3
3 11 202 194
193 201 237 209
201 209 193 248
2 10 46 44
8 194 11 210
254 238 246 230
6 14 10 2
2 10 6 18
8 16 24 60
8 11 3 24
3 11 193 201
2 10 18 26
8 46 38 54
8 44 16 24
3 8 36 11
201 193 39 6
57 49 10 41
8 52 60 36
8 24 16 11
36 52 39 194
57 41 58 6
2 10 26 18
8 36 16 24
8 194 238 230
201 193 217 209
2 201 10 245
228 8 231 239
8 254 246 230
11 8 3 58
3 11 6 14
10 2 14 201
8 44 52 60
8 238 194 202
3 11 194 193
10 6 2 201
2 228 10 8
8 44 11 60
44 8 58 60
11 57 3 58
7 6 14 23
59 43 51 35
236 231 228 239
44 192 36 200
18 10 45 2
8 5 17 21
8 11 246 202
11 238 237 138
201 209 217 193
137 3 237 11
229 240 224 255
230 39 46 47
11 3 8 27
45 37 53 254
52 60 6 14
5 6 14 62
52 57 49 36
228 231 135 239
19 3 16 45
16 24 240 224
182 57 165 203
52 12 10 61
193 254 238 204
37 187 53 45
193 194 228 231
135 207 143 31
25 17 9 8
45 36 44 61
9 1 55 63
10 2 26 18
33 49 136 152
16 8 38 46
3 59 29 13
14 222 226 250
10 183 164 204
60 63 62 51
8 11 3 15
337 217 338 218
246 462 372 245
476 1 181 207
59 28 142 53
62 54 36 46
484 487 266 254
5 52 55 150
1 29 24 17
36 45 60 53
146 145 252 244
46 45 53 52
8 16 1 136
251 239 227 139
128 236 13 228
5 13 1 29
52 60 203 195
13 5 8 52
1 10 37 38
239 236 253 397
13 5 9 21
1 9 5 17
2 10 46 192
10 18 26 2
52 42 230 174
51 243 162 69
236 239 203 60
189 207 151 148
8 483 11 367
272 88 195 438
82 251 166 387
427 424 386 36
177 285 488 269
321 509 451 295
423 347 420 162
357 368 271 371
343 333 292 404
6 205 200 22
205 206 221 222
234 51 207 250
33 49 46 23
210 172 240 243
225 226 241 206
63 134 133 142
59 51 43 18
59 51 43 178
51 59 31 141
56 40 4 45
56 40 101 105
179 28 45 184
25 239 236 223
37 45 161 39
25 26 28 215
207 215 236 16
45 228 231 37
181 231 16 255
46 45 62 61
9 13 176 102
21 5 49 33
46 38 62 162
29 10 26 123
56 40 59 241
63 60 195 55
51 54 12 20
60 34 59 44
1 17 18 2
41 4 7 42
247 34 177 79
434 361 364 369
446 388 445 242
185 128 221 120
163 19 162 395
146 145 501 464
43 42 14 35
1 9 17 25
9 1 17 25
2 10 18 26
14 13 215 223
5 8 21 24
8 44 36 52
182 8 3 33
8 11 202 194
57 58 3 36
14 30 6 22
252 228 49 236
254 8 16 130
53 33 32 37
159 195 211 41
193 239 231 209
49 32 44 48
41 42 57 33
202 209 194 193
57 58 49 3
13 29 5 21
1 9 14 13
37 210 194 44
6 11 193 14
2 3 10 18
10 2 231 44
8 24 16 11
11 36 3 8
3 11 14 34
14 6 2 10
60 44 8 63
8 24 11 3
11 3 27 201
6 2 10 58
10 2 14 26
8 24 16 44
8 3 11 24
3 11 237 14
6 2 10 14
8 24 16 10
8 24 11 3
11 3 8 36
6 2 11 14
2 10 26 18
8 44 36 60
8 3 11 24
3 11 8 58
2 10 201 3
10 2 46 60
8 24 60 44
36 11 8 194
14 3 6 39
10 2 14 18
8 46 36 60
8 24 36 44
11 3 202 39
14 6 2 201
10 2 26 18
8 24 60 44
8 11 3 194
3 11 19 27
2 10 6 14
8 2 10 24
8 24 16 3
3 11 8 202
3 6 11 14
10 2 14 18
8 44 60 38
8 3 11 230
3 11 58 193
2 57 10 201
10 2 239 26
8 24 60 36
226 198 47 242
1 9 37 45
45 9 38 37
8 16 24 60
8 60 44 52
10 2 44 38
8 52 44 36
8 24 16 255
2 10 160 204
24 16 54 52
10 26 3 2
49 2 10 58
195 192 219 211
3 11 19 8
58 42 209 202
6 10 26 18
200 2 203 248
60 52 44 8
11 3 47 27
36 44 8 39
22 14 39 6
14 13 29 2
59 33 49 51
8 12 4 24
209 230 193 229
181 216 192 200
10 2 14 26
1 52 187 55
218 238 9 1
15 12 31 11
33 34 57 58
2 14 10 7
12 4 8 226
2 46 18 44
234 198 55 39
206 242 250 232
186 230 246 211
41 222 42 35
7 23 20 4
248 251 229 232
241 242 226 225
3 15 19 42
7 15 31 23
7 23 4 205
206 222 221 234
3 226 15 214
172 3 43 205
59 7 15 56
54 62 38 46
59 43 53 65
50 5 225 53
29 13 21 14
5 29 30 14
9 4 187 227
35 43 34 53
1 9 17 199
1 9 2 45
228 38 236 2
10 6 2 14
11 58 3 42
8 10 2 24
8 24 44 16
8 16 11 24
3 11 8 194
3 6 14 11
2 10 14 18
8 44 60 10
8 11 24 3
3 202 201 11
3 14 11 6
2 10 26 37
8 24 60 44
8 11 3 44
3 11 41 19
3 11 19 58
2 10 18 14
11 44 8 47
29 30 13 17
21 248 220 223
13 9 1 4
203 56 108 25
169 192 85 170
9 319 27 28
198 197 57 13
340 235 208 30
50 49 121 503
222 149 221 157
12 108 21 11
424 284 287 358
442 331 441 328
27 18 2 48
12 9 20 1
43 52 5 35
45 225 233 155
208 211 5 13
5 29 13 217
9 1 133 231
5 1 9 13
1 9 17 25
1 31 9 15
5 41 195 21
231 239 227 243
7 23 51 197
7 59 20 61
37 53 12 35
59 177 2 37
43 26 35 7
15 7 31 205
42 35 34 43
38 199 54 196
38 46 45 53
4 12 21 29
40 6 56 48
29 5 45 13
32 56 24 40
29 30 22 21
9 28 12 207
9 29 21 17
5 21 22 13
190 189 181 199
1 9 2 5
25 17 32 48
48 32 40 236
40 56 48 59
222 214 249 37
36 212 132 39
57 49 26 33
53 25 28 54
20 255 139 28
18 43 2 26
18 10 54 2
1 9 17 29
33 34 32 41
224 232 1 235
255 252 244 20
198 41 221 33
232 235 196 199
62 38 46 18
59 20 56 43
23 7 197 4
199 215 151 135
13 5 29 6
13 25 9 235
161 241 251 225
7 15 23 140
15 7 31 59
6 34 56 48
52 36 208 60
18 26 2 54
225 233 30 195
193 43 35 59
15 7 23 12
12 20 4 15
5 13 4 6
52 177 148 60
17 9 38 207
61 63 37 211
255 195 252 192
245 151 148 18
17 4 18 30
116 65 103 72
75 72 124 127
115 98 114 113
118 102 251 117
122 91 121 75
196 199 112 221
308 316 143 268
118 107 6 87
109 230 110 100
76 33 421 21
8 102 91 18
131 147 66 155
4 12 7 5
206 4 6 8
29 21 13 5
9 1 233 17
12 4 28 40
32 40 48 56
34 33 41 188
40 32 43 56
207 199 179 171
41 12 57 33
58 56 40 42
162 206 222 178
224 132 212 220
6 53 14 54
5 2 6 13
15 35 7 2
26 25 51 230
214 242 225 226
32 47 48 4
244 12 4 247
7 157 4 56
108 141 62 111
60 37 53 52
17 1 18 192
190 189 207 192
66 29 30 61
465 466 56 59
23 227 376 52
44 52 8 29
297 212 358 246
435 11 78 300
349 148 196 190
141 142 99 57
23 33 40 18
42 4 58 56
1 235 215 207
13 2 6 5
226 242 222 234
198 20 206 197
12 4 56 48
235 232 151 6
8 1 17 206
14 46 22 232
2 10 9 1
206 213 221 249
23 4 31 7
38 37 25 9
37 53 61 12
33 49 62 46
27 19 42 34
25 17 9 1
246 254 15 19
236 49 252 244
211 219 195 208
228 252 236 244
