# MaxFreqExtractor features
# Channels: 2
# Frame size: 1024
# Hop size: 512
# Sample rate: 48000
# Frequencies per frame: 4
13 195 192 203
207 215 223 199
14 6 30 50
6 14 58 34
32 48 58 35
46 44 60 206
8 36 44 12
46 44 8 52
8 60 44 24
44 52 60 58
29 13 21 33
21 29 13 5
48 12 40 32
255 252 239 247
13 5 21 6
44 227 135 132
29 21 13 8
2 1 18 10
53 44 61 36
204 196 215 220
53 32 37 48
1 9 13 5
60 52 8 44
24 12 4 8
10 60 52 2
10 2 46 8
10 2 239 195
10 2 195 239
2 8 10 203
239 37 18 10
7 4 19 253
485 486 248 54
141 142 150 248
234 128 430 443
21 3 22 322
14 29 30 36
39 233 36 6
31 44 23 20
204 232 207 220
9 1 17 5
10 6 14 2
1 9 17 13
2 10 239 231
14 6 30 22
50 45 36 2
5 13 8 1
195 231 9 203
38 46 37 200
1 9 5 13
8 3 36 60
47 49 63 43
241 14 2 13
2 18 10 7
10 2 26 18
228 31 229 236
43 211 223 35
42 13 29 24
12 24 40 28
38 37 238 47
33 57 54 41
14 30 10 22
29 45 61 37
216 219 251 131
22 23 271 50
204 140 137 250
40 177 53 56
341 211 100 354
22 30 31 6
186 46 3 47
225 202 109 17
22 21 19 16
211 35 32 131
39 55 36 63
28 129 39 13
30 39 47 63
9 17 60 25
47 62 63 55
30 4 29 36
134 14 250 13
16 44 19 21
47 46 62 32
50 34 58 42
33 183 247 231
227 224 196 235
37 53 29 13
4 48 56 32
14 6 22 30
18 14 26 2
12 4 16 205
4 7 20 15
15 42 6 32
234 233 250 225
211 219 208 233
7 35 15 32
13 29 240 28
226 234 53 44
46 38 56 48
59 203 37 52
5 13 29 8
10 2 1 9
59 8 10 60
2 10 1 239
5 13 21 29
5 13 1 17
2 10 231 37
5 1 13 17
8 244 16 60
195 192 131 8
13 5 9 1
49 33 57 59
34 57 33 49
9 231 235 215
1 9 17 13
56 12 4 40
9 13 5 1
35 43 7 53
14 10 30 6
14 30 225 6
225 226 234 233
7 15 23 35
14 10 6 58
177 196 199 223
35 37 43 34
17 25 1 180
33 6 41 34
45 132 61 210
4 12 28 20
6 34 33 42
8 224 240 232
5 21 13 29
240 196 243 232
1 9 25 17
1 9 13 25
9 1 25 17
45 37 195 236
38 192 44 54
44 58 60 57
177 215 49 169
243 207 204 13
28 12 9 25
173 68 165 54
239 11 106 105
238 237 42 211
210 27 36 175
114 21 24 29
33 49 41 50
174 173 5 110
49 50 32 56
219 31 208 28
33 32 34 57
243 153 195 224
198 226 206 234
13 14 5 9
1 9 4 8
1 9 2 45
8 60 52 44
8 24 16 12
8 60 44 52
9 1 10 2
48 56 200 40
8 60 44 52
10 2 26 18
6 1 14 13
60 29 33 44
8 16 24 20
21 29 9 219
33 41 34 6
21 2 22 1
4 235 12 227
34 6 255 42
22 30 6 14
21 17 29 1
31 23 7 15
245 34 58 253
1 17 187 2
61 45 20 52
17 25 26 18
223 101 165 54
10 49 26 212
15 31 12 20
11 8 27 37
28 31 100 38
183 112 164 96
62 61 87 231
22 31 39 36
47 40 32 49
28 12 213 214
7 51 224 48
17 4 1 5
199 196 227 212
9 1 25 17
35 153 154 12
253 207 250 36
35 59 32 51
4 7 239 12
227 235 171 243
20 4 32 28
14 6 30 22
10 2 1 9
4 1 9 12
15 7 31 23
14 6 10 30
13 15 7 5
15 7 35 12
222 206 242 134
7 15 10 23
18 2 14 76
233 2 249 169
228 192 200 236
37 61 55 45
60 8 13 52
13 5 1 9
230 194 238 229
8 5 13 24
8 60 44 52
13 5 29 248
13 5 1 9
8 44 60 24
203 44 239 10
9 1 17 5
8 16 13 4
13 5 53 41
5 13 44 60
195 219 236 200
9 1 5 199
6 14 5 13
9 1 4 12
14 6 30 22
4 205 30 197
4 32 40 7
20 12 4 28
197 205 213 198
43 40 4 15
197 198 225 169
135 174 235 218
40 32 57 43
29 21 13 5
56 48 34 40
255 33 247 252
5 21 13 1
199 235 15 207
29 13 21 5
215 223 199 243
13 5 1 9
1 9 13 25
1 9 17 199
1 9 231 195
38 37 45 46
192 228 236 60
47 55 39 19
39 249 9 1
31 14 215 207
47 14 249 250
20 40 151 148
22 30 207 48
29 30 9 10
226 217 38 150
8 337 21 199
241 32 3 140
22 170 414 413
55 20 249 114
98 142 12 97
138 442 441 241
43 42 58 34
9 1 5 17
12 28 4 14
1 9 17 25
2 10 239 231
6 14 30 22
2 239 10 37
5 13 8 1
195 9 231 203
38 46 62 37
1 5 9 6
8 44 24 60
37 52 44 47
1 5 25 173
17 28 1 8
237 246 19 3
299 296 229 214
308 138 376 331
206 205 172 213
15 7 62 38
26 10 18 2
14 41 2 226
206 213 6 205
23 12 7 31
221 222 198 250
233 206 198 234
36 58 49 50
206 205 170 222
23 38 43 7
34 3 114 14
32 99 40 195
105 121 13 140
44 35 192 60
45 46 136 236
17 187 56 40
221 213 38 59
52 55 228 230
24 48 181 218
161 162 164 208
48 56 51 7
15 51 48 6
20 225 233 226
47 16 49 32
34 50 42 58
33 255 247 191
196 224 227 232
29 37 13 53
4 12 56 32
6 14 30 4
2 14 18 10
4 12 8 16
7 4 15 12
55 63 52 60
225 177 233 226
14 6 54 227
12 4 20 7
194 12 210 28
226 198 250 234
48 56 38 46
203 239 231 59
5 13 29 21
2 10 1 9
53 8 61 10
2 10 1 37
13 5 8 57
13 5 29 21
2 18 10 26
5 13 6 14
8 5 13 24
60 10 44 2
52 53 54 62
5 13 60 29
54 62 38 53
9 56 48 40
204 232 224 220
203 56 195 219
10 13 9 5
7 35 51 53
14 10 2 26
14 30 6 22
59 41 51 5
23 7 15 60
168 222 12 160
205 197 234 26
42 43 35 185
17 25 252 228
33 34 6 5
45 46 37 56
12 4 28 20
6 14 34 33
8 24 240 224
13 5 29 21
240 232 243 248
1 9 5 17
1 9 13 5
1 9 37 17
203 231 1 239
59 45 52 60
57 33 50 60
25 45 46 63
17 1 18 9
45 46 62 32
32 25 24 16
45 180 167 183
226 249 242 241
4 25 20 9
51 45 61 226
38 62 230 46
46 38 37 53
33 40 34 51
231 228 156 252
199 204 196 56
125 123 124 107
206 222 1 205
13 5 14 6
9 8 1 25
1 9 2 45
60 8 52 44
8 12 4 194
8 24 60 16
9 1 10 17
1 172 203 9
8 24 16 13
239 47 2 231
45 1 57 9
44 36 52 60
22 10 46 23
17 1 9 29
6 14 41 33
46 21 45 9
34 216 40 4
34 42 33 6
30 22 6 14
21 9 29 17
31 15 7 23
5 16 34 224
12 38 53 37
28 31 208 45
42 41 58 33
221 205 42 222
241 141 242 225
98 223 251 220
250 234 67 113
247 41 231 40
17 1 45 131
44 198 214 60
41 33 49 57
17 25 54 9
28 31 247 40
14 61 29 6
167 249 244 359
59 278 441 250
27 110 109 24
438 301 77 26
252 251 52 54
35 32 48 40
255 4 247 239
227 235 171 207
4 20 28 40
14 30 6 22
10 1 9 2
4 12 9 1
7 15 23 31
14 6 10 2
13 29 15 21
4 12 7 28
20 221 223 222
7 62 46 23
6 4 44 205
233 204 249 205
56 192 228 236
59 51 41 61
13 5 8 60
5 13 1 9
61 39 8 62
8 5 16 24
8 60 44 52
13 5 1 21
5 9 1 13
8 60 24 44
45 61 46 37
1 9 17 25
4 12 28 20
5 13 25 21
6 14 50 5
200 54 203 62
9 1 207 199
13 250 242 226
4 9 1 12
4 12 56 40
4 12 233 225
4 7 12 15
9 12 61 15
198 226 206 234
7 15 43 23
197 213 241 233
199 143 200 215
29 203 40 33
13 29 5 21
32 40 48 56
255 247 33 41
5 21 13 1
135 132 235 251
5 13 29 21
215 207 223 17
13 5 29 9
9 25 1 10
1 9 13 17
9 1 17 45
239 228 231 236
236 40 228 239
226 44 36 54
52 39 36 55
28 31 16 24
149 328 138 331
17 20 231 137
36 39 248 48
223 254 220 253
4 20 197 24
28 31 61 45
143 200 234 233
9 10 402 312
239 106 188 246
18 376 115 25
57 46 41 56
6 212 196 225
13 235 199 227
8 12 24 16
1 9 17 227
2 239 231 38
57 41 49 42
2 10 239 1
6 14 11 3
8 24 16 4
203 231 239 195
203 239 195 247
1 9 2 10
8 60 192 44
226 222 170 206
8 60 44 52
53 10 2 38
2 10 1 6
2 10 7 18
14 6 18 2
5 1 13 6
3 44 8 11
33 8 36 34
2 38 10 1
199 235 243 227
8 60 44 52
8 44 36 230
8 24 5 13
8 60 52 44
197 8 44 230
8 16 3 9
8 4 24 3
8 16 3 11
3 53 34 45
37 53 247 203
1 5 13 6
8 13 57 5
7 15 23 3
30 22 10 6
2 224 232 10
12 20 1 21
14 6 13 5
206 220 205 196
47 204 39 23
54 8 42 34
29 13 5 21
28 12 4 20
20 28 31 4
210 175 202 172
230 246 38 238
8 24 16 11
251 159 151 223
49 50 57 204
237 253 254 239
254 230 246 206
1 9 25 17
2 10 44 18
210 209 62 227
43 59 17 40
16 24 8 36
46 8 44 33
2 10 18 203
30 475 42 472
230 196 238 3
13 5 52 8
8 11 24 27
166 350 216 308
202 172 175 54
5 6 13 60
9 231 47 75
28 20 135 56
108 21 25 1
60 194 50 52
39 55 47 52
47 39 44 36
45 37 61 24
6 230 26 215
30 174 29 14
54 38 50 53
48 51 53 245
63 60 44 55
216 246 200 2
195 248 176 223
227 241 215 2
211 43 195 53
223 220 179 207
189 212 192 180
166 62 61 174
53 37 147 54
100 86 116 8
166 17 182 53
25 9 17 1
52 36 55 29
62 6 244 195
61 53 62 52
8 1 55 2
218 202 217 52
155 139 184 152
46 253 237 89
229 244 247 174
60 147 63 144
45 46 145 251
22 88 91 109
247 231 239 255
113 121 97 105
117 125 236 101
255 239 146 130
35 32 183 175
221 38 205 232
61 43 3 36
5 29 207 28
24 16 33 191
182 42 24 214
37 53 88 54
203 177 46 217
101 171 187 1
53 49 96 144
33 41 34 42
45 61 37 53
49 57 130 248
124 97 96 88
98 114 97 31
100 113 109 116
37 38 137 53
137 119 138 145
175 224 172 227
209 3 33 193
203 200 35 32
239 204 207 63
33 49 6 50
3 273 344 59
167 164 190 135
205 38 481 499
286 492 359 285
501 383 502 395
468 45 54 454
430 323 187 429
309 72 310 75
457 458 467 427
490 350 5 137
172 358 1 200
481 474 57 58
209 3 210 153
27 45 209 80
221 175 213 191
55 52 166 199
473 474 493 221
3 19 50 202
66 67 65 64
218 19 3 16
141 102 127 101
127 102 8 124
12 28 193 209
255 239 211 222
251 248 24 202
216 166 164 200
187 176 160 171
231 141 105 216
118 102 130 139
208 192 211 195
224 244 160 194
199 240 243 191
45 61 37 164
24 49 33 17
211 254 124 195
202 201 217 218
191 236 46 172
166 19 255 201
155 97 123 112
16 19 3 187
449 149 450 57
113 44 54 26
53 8 138 24
234 145 229 146
135 151 204 148
239 173 213 214
178 194 232 184
19 16 3 25
34 187 33 19
54 53 38 62
178 9 13 21
8 11 166 3
209 189 193 43
16 44 233 20
41 42 34 18
218 39 12 36
40 32 43 182
58 50 42 34
28 4 20 12
4 12 28 16
13 5 14 21
22 176 29 21
32 40 209 42
44 196 161 14
224 420 152 503
232 123 120 207
6 384 409 48
219 25 4 32
15 246 31 7
5 13 29 21
192 15 46 62
10 232 7 14
10 228 2 200
130 49 8 230
10 2 26 46
8 24 147 144
8 36 44 60
10 44 60 47
62 54 8 46
194 244 228 202
8 33 206 60
60 52 62 36
13 8 5 16
228 244 193 194
8 5 24 4
245 48 62 57
8 1 212 5
11 8 57 3
201 237 204 217
55 34 3 58
191 175 57 48
21 29 22 30
57 58 49 50
14 30 137 23
39 47 44 55
175 197 166 182
196 232 148 212
207 199 243 235
2 10 6 14
227 199 235 207
46 38 195 239
193 2 209 137
2 1 7 14
41 57 33 49
5 6 1 9
200 236 216 252
2 1 10 9
13 5 4 14
2 1 239 203
1 8 5 13
8 12 24 4
223 197 14 204
40 237 56 142
38 46 10 45
5 13 57 14
224 232 235 208
56 59 33 34
206 4 8 12
2 10 59 38
9 49 57 1
208 216 58 219
37 1 2 175
5 21 13 29
46 10 2 62
57 49 58 43
29 21 5 236
220 204 223 187
41 195 57 203
49 44 57 60
37 53 1 61
61 45 12 44
231 195 2 203
254 253 237 218
211 29 192 195
5 21 13 9
8 60 44 24
37 2 1 38
13 14 6 37
172 26 202 14
63 225 206 226
33 41 1 9
227 235 243 251
4 20 34 33
28 33 34 20
21 22 6 5
240 224 251 248
29 30 17 25
28 12 218 202
22 21 30 14
34 33 50 41
49 57 26 33
21 29 22 30
193 194 209 210
201 2 175 145
14 6 193 58
13 14 5 6
13 5 52 59
6 5 14 1
3 11 6 2
6 1 5 2
8 5 13 57
44 36 11 8
8 42 57 5
8 5 24 16
8 24 16 60
8 24 16 60
8 10 44 24
123 120 82 213
42 57 41 197
237 253 246 229
20 4 28 193
22 21 6 5
20 243 240 227
220 29 49 30
49 33 57 50
57 254 243 34
25 255 252 209
227 235 251 243
5 33 21 49
29 13 21 30
185 223 212 220
34 42 17 56
33 41 34 6
227 53 235 232
28 12 4 20
14 30 29 13
240 156 140 28
53 6 17 37
166 174 16 165
56 49 16 5
22 6 18 2
181 30 165 182
33 55 39 51
35 29 13 8
1 17 9 32
5 13 21 29
30 152 14 6
211 90 195 203
242 154 232 226
18 200 230 157
179 211 176 164
6 5 14 49
182 181 436 215
21 13 9 14
34 33 58 168
4 40 190 189
159 511 42 247
173 31 435 28
12 55 63 62
205 221 61 45
14 30 6 2
41 33 1 44
1 9 45 37
46 62 38 54
36 1 44 197
8 60 12 24
1 9 2 10
54 62 44 38
57 194 49 41
198 214 10 2
6 243 5 139
228 244 236 128
251 9 10 26
50 203 49 225
206 222 198 217
1 9 2 221
216 208 230 246
13 1 220 9
60 44 59 36
31 28 15 46
2 18 10 26
9 1 17 25
18 2 26 10
17 25 8 1
232 58 57 42
200 216 172 244
224 196 168 232
239 142 158 157
213 198 13 214
231 233 213 249
29 200 13 57
14 13 30 29
54 38 4 53
6 9 58 42
61 62 53 49
34 243 33 1
57 29 51 37
17 5 13 25
48 57 51 203
24 8 5 192
9 25 196 212
41 247 34 33
12 4 15 20
34 42 56 50
33 6 41 22
14 6 22 30
224 232 227 235
4 227 20 29
16 19 23 20
15 12 4 31
173 194 174 218
245 104 43 29
56 367 242 8
241 199 213 233
11 221 5 55
180 216 200 252
44 60 58 63
13 5 29 8
13 14 5 6
1 9 24 196
1 13 5 9
235 37 45 251
228 239 252 236
180 236 249 200
2 1 10 18
6 14 13 5
36 44 8 60
8 16 24 38
8 44 36 28
2 10 196 212
6 5 30 29
34 51 50 42
13 5 21 17
36 195 37 192
248 140 148 232
37 53 45 61
16 25 24 29
17 25 9 251
18 26 10 2
34 42 187 33
23 54 62 31
213 214 242 241
31 7 15 33
211 195 192 208
37 12 224 227
200 216 192 208
255 195 231 247
33 41 16 34
59 248 132 62
220 204 223 160
8 24 16 37
202 218 194 8
238 193 230 194
18 6 2 14
1 17 25 9
172 175 188 166
8 208 3 11
58 63 42 36
61 53 211 219
12 15 8 3
30 62 15 46
28 12 20 4
7 23 15 31
6 198 97 62
205 197 198 221
216 219 18 45
22 3 26 18
45 61 62 46
45 61 40 33
