# MaxFreqExtractor features
# Channels: 2
# Frame size: 1024
# Hop size: 512
# Sample rate: 48000
# Frequencies per frame: 4
27 43 35 19
23 7 31 123
23 15 31 7
51 59 43 35
51 59 48 35
226 19 133 134
55 63 52 245
52 55 166 36
241 20 161 225
32 23 195 149
20 195 23 4
199 243 20 177
4 239 37 53
1 9 13 5
18 248 240 10
203 192 195 219
17 1 63 248
9 1 25 10
13 5 29 21
22 30 6 14
62 24 54 8
27 19 15 31
7 23 19 3
32 48 54 18
231 195 239 47
1 9 17 235
1 9 2 224
195 211 234 226
149 12 150 133
9 10 13 196
8 24 9 218
176 3 160 19
191 17 175 197
253 58 254 200
31 28 59 56
238 237 27 184
63 6 47 203
9 1 207 25
5 9 224 13
147 144 242 34
5 1 13 143
54 7 46 31
13 14 30 29
41 55 6 5
19 27 16 24
46 62 54 38
98 114 187 13
4 12 20 143
14 6 225 13
143 159 227 151
13 5 14 1
6 63 14 57
2 18 17 1
7 23 41 56
199 215 24 13
173 189 238 237
3 41 5 19
206 43 222 51
198 241 214 244
12 28 8 4
14 30 13 6
1 4 45 38
235 232 5 248
26 6 25 10
231 199 159 228
24 215 71 68
54 63 55 13
232 248 134 9
5 203 6 246
59 43 51 7
120 104 123 169
8 24 16 17
14 13 18 29
9 1 236 239
196 9 215 199
17 184 1 168
35 51 32 43
7 23 4 62
59 51 55 15
233 234 249 15
140 62 5 248
49 33 7 234
185 186 199 20
12 4 8 16
14 13 29 30
195 192 231 32
199 227 224 243
5 13 1 6
54 131 62 128
6 19 22 3
34 50 11 27
8 24 57 58
30 26 56 29
52 44 60 36
182 166 194 130
8 12 4 16
5 59 35 43
40 203 56 48
9 207 1 199
9 25 13 1
21 43 35 29
8 24 16 11
3 11 60 223
248 196 58 251
132 156 135 232
218 222 221 253
142 185 169 141
9 1 25 226
13 29 5 9
14 30 203 58
9 1 17 215
13 5 29 21
34 6 50 5
206 226 8 215
249 246 5 7
209 221 171 176
10 2 26 9
146 22 45 248
32 35 48 40
36 255 39 47
5 13 1 9
54 62 38 46
1 48 45 9
13 5 21 29
54 200 58 42
48 8 50 144
5 13 21 244
245 13 5 29
161 160 168 178
37 62 23 10
219 208 152 232
44 54 47 36
5 13 21 9
55 50 49 6
1 48 32 56
1 5 17 9
34 33 59 50
195 46 45 38
13 250 162 234
137 138 153 234
6 14 2 18
253 129 245 237
139 239 211 231
6 27 234 186
53 5 13 12
14 13 56 29
48 32 1 56
1 18 2 9
12 63 250 36
19 55 34 3
138 210 194 230
3 16 19 39
40 35 43 32
27 24 19 129
138 7 130 154
2 18 10 26
232 9 25 1
59 43 56 40
1 9 17 48
9 220 204 25
196 44 218 253
19 23 3 27
54 23 49 27
36 52 39 28
34 50 55 37
13 14 9 10
16 245 182 41
54 62 55 53
9 1 25 199
6 14 5 13
1 9 236 37
13 5 199 243
14 6 5 13
24 8 16 29
54 1 55 53
19 194 246 230
216 133 24 226
1 17 2 18
123 221 31 17
14 30 35 23
1 9 199 13
5 6 218 13
56 40 50 43
9 25 1 196
13 29 5 241
5 1 9 13
53 27 13 238
19 27 35 16
43 10 217 40
24 63 8 212
52 55 36 131
15 59 31 7
9 1 199 207
5 13 204 29
54 56 40 59
9 215 1 199
13 5 14 6
43 13 59 5
13 17 1 14
9 152 168 150
149 138 254 238
37 193 209 44
4 12 32 7
7 4 45 59
8 5 13 16
1 5 13 9
8 60 24 44
8 24 10 16
60 8 10 44
8 44 36 10
194 60 254 36
58 11 42 8
201 57 39 51
52 2 44 8
3 11 8 19
2 1 239 10
198 214 213 197
6 22 3 15
10 2 195 44
239 217 255 195
8 24 3 57
202 201 218 217
55 61 45 52
2 10 59 201
51 247 15 238
13 5 33 29
8 44 209 47
48 51 32 50
49 50 33 34
2 14 237 204
8 16 24 36
238 60 8 44
202 11 47 218
14 6 58 145
42 14 176 2
8 10 24 4
10 2 12 28
3 12 15 4
3 11 6 15
237 238 40 38
49 57 33 58
51 59 45 201
1 57 2 17
230 246 134 150
225 226 233 234
36 8 3 19
3 11 19 16
6 22 14 30
252 236 255 55
4 146 130 12
4 12 17 218
228 210 194 49
8 13 5 24
9 1 13 25
8 24 44 60
44 60 46 228
8 36 52 60
10 44 8 2
8 3 24 60
11 3 27 194
2 14 10 193
8 44 60 24
3 11 27 194
193 173 2 209
147 131 139 212
4 28 29 12
10 2 14 30
12 28 8 4
8 20 16 4
8 11 222 24
38 46 59 56
203 231 219 187
205 223 169 221
8 11 3 52
55 50 49 34
44 36 173 208
6 5 195 22
254 238 253 218
8 252 36 180
12 28 4 15
218 201 202 217
41 33 57 49
222 150 221 134
10 46 38 59
8 181 233 24
58 251 42 248
193 51 63 209
203 200 219 211
6 2 10 14
8 128 236 10
10 2 8 216
8 4 12 40
1 17 20 4
31 23 15 14
206 242 205 198
231 247 197 141
3 11 54 38
14 6 13 30
13 5 8 1
13 5 29 21
13 5 9 1
2 1 6 231
13 5 8 29
8 44 60 24
8 10 60 44
8 24 16 60
8 3 194 193
193 3 201 202
10 2 14 237
19 3 202 11
193 39 209 201
8 60 38 24
3 8 11 16
218 226 210 56
9 10 6 174
51 49 57 33
229 3 237 201
239 236 53 54
246 46 245 62
174 8 4 190
3 8 11 19
202 201 237 44
2 203 10 14
8 60 52 3
192 8 195 200
11 27 39 47
42 58 5 41
3 49 19 47
173 51 55 189
231 10 239 53
9 27 25 52
5 13 29 21
11 3 19 27
45 10 236 46
57 6 55 41
15 3 4 12
5 21 60 44
39 15 55 53
6 10 58 26
209 210 245 194
49 33 47 223
30 14 44 22
4 12 7 15
5 36 60 44
61 57 45 35
45 61 43 53
38 36 33 37
9 5 13 25
1 9 37 45
38 239 231 37
229 58 230 11
13 5 8 29
8 12 24 16
8 44 60 52
8 11 238 3
11 3 6 14
10 26 6 2
8 60 3 44
11 238 63 237
221 205 12 222
8 3 11 4
43 15 203 87
22 232 30 235
2 202 226 218
5 47 21 44
7 23 41 38
19 3 27 11
27 11 19 7
221 55 241 205
51 35 60 32
198 214 175 231
204 220 161 38
5 12 44 13
44 36 60 47
39 55 3 47
173 253 193 245
31 23 18 15
39 47 36 55
166 165 39 173
194 166 174 210
8 16 145 186
55 51 59 54
38 54 46 108
38 24 16 64
38 7 54 67
100 34 50 116
26 10 2 18
183 167 234 24
56 40 59 32
174 173 165 190
9 25 23 31
210 194 209 173
65 66 70 221
51 48 59 2
63 37 7 55
199 1 223 9
13 9 1 17
203 195 52 2
5 1 13 9
8 238 60 230
8 60 52 44
8 36 44 16
8 3 11 230
14 11 6 39
51 59 43 14
8 4 24 194
59 51 3 11
39 55 175 239
47 14 30 238
8 16 12 237
43 35 40 51
185 186 219 6
17 1 4 56
225 226 197 213
38 23 37 61
63 47 60 44
194 188 42 206
10 6 3 2
2 30 14 253
58 50 52 42
192 225 233 36
9 25 17 148
4 153 10 12
5 243 6 240
181 186 203 165
5 59 49 13
25 15 10 61
6 52 5 55
5 9 16 8
251 49 157 52
249 9 1 56
207 196 199 253
13 12 5 4
15 24 41 40
23 7 199 215
39 25 55 9
55 52 39 63
35 51 43 59
13 29 17 18
9 1 25 13
246 45 61 36
198 23 214 206
221 205 249 213
1 9 211 207
2 10 18 26
13 5 29 21
14 6 30 22
1 9 5 13
8 24 11 3
8 60 44 36
3 11 36 230
3 11 6 14
2 10 18 26
8 3 11 24
11 3 58 27
9 1 25 10
202 6 201 218
193 62 56 200
12 4 59 51
8 142 206 226
14 6 30 2
1 13 29 17
53 61 10 2
63 39 55 15
10 2 18 26
5 13 9 1
12 4 48 32
1 9 44 35
46 2 10 6
14 6 30 22
26 5 25 10
5 21 33 49
10 26 44 8
1 17 9 25
8 44 24 60
55 219 195 211
200 192 228 2
1 9 2 10
4 17 9 12
58 57 9 50
60 136 52 192
2 10 49 14
5 6 13 21
1 9 6 5
8 60 24 57
45 37 38 61
13 44 59 5
239 231 195 52
41 57 49 33
12 7 15 28
30 23 22 31
195 211 203 219
9 10 1 2
5 60 13 44
2 1 18 231
8 3 6 194
8 44 60 3
194 193 174 173
6 201 58 14
14 6 10 11
12 8 10 14
8 3 11 36
193 209 59 217
8 195 63 24
175 37 209 51
230 238 254 246
1 7 2 14
13 5 8 44
239 231 131 247
58 57 60 51
55 53 38 44
207 204 8 227
12 28 4 20
13 1 14 2
61 62 236 46
1 9 17 4
6 47 63 48
24 8 192 208
195 228 200 2
1 4 5 6
161 177 162 178
209 193 183 58
56 210 55 40
227 235 48 140
12 20 4 8
5 21 29 6
44 47 60 192
55 47 1 63
60 52 62 44
2 131 8 14
13 5 21 29
236 239 228 231
41 57 33 49
38 58 54 52
5 34 6 13
27 208 11 200
8 9 4 1
8 60 44 52
10 240 2 136
57 13 63 14
60 228 136 236
5 13 9 21
14 10 2 13
1 239 9 2
11 3 57 8
8 5 13 1
3 11 19 27
10 2 6 14
8 10 44 60
8 11 3 230
3 11 14 6
11 15 195 31
2 10 14 26
14 6 13 10
44 60 52 36
57 41 49 55
10 9 228 192
9 1 17 12
8 24 16 27
4 197 205 12
208 192 200 38
37 53 45 38
241 225 249 133
54 36 53 44
38 236 46 62
18 6 2 31
5 52 21 209
14 30 13 18
31 28 15 12
199 215 40 9
52 24 60 8
195 4 249 63
39 47 62 54
6 5 51 14
59 134 43 186
18 51 59 48
7 115 185 99
51 59 43 35
63 55 39 47
43 12 4 59
205 179 176 221
231 247 22 131
148 225 241 132
46 216 200 136
2 18 238 59
247 231 215 228
33 49 221 7
207 185 223 199
8 33 16 60
13 5 1 9
8 228 60 236
2 10 1 9
6 14 36 13
6 11 3 14
3 2 11 10
53 37 2 39
8 24 16 3
194 11 36 202
193 10 201 59
194 36 3 181
57 41 49 33
20 152 235 136
231 247 49 244
37 45 38 53
200 203 216 195
38 46 54 37
240 243 224 155
49 34 33 50
13 43 34 59
41 57 42 58
13 16 5 14
203 185 249 200
203 2 10 195
251 49 50 30
14 11 6 208
39 14 30 11
193 149 6 247
11 2 18 3
129 145 40 231
6 14 5 30
9 10 26 2
12 4 129 231
2 10 1 18
200 48 32 216
38 37 45 46
58 47 53 63
57 58 228 41
229 245 230 144
231 247 30 209
13 5 29 17
195 203 192 231
193 6 14 209
13 14 18 6
12 24 17 29
6 14 10 2
5 1 13 9
13 5 15 29
9 1 45 13
10 46 2 38
59 57 51 43
14 6 30 2
2 1 6 51
6 14 201 2
2 10 18 14
8 16 24 44
3 11 19 27
229 237 39 245
8 44 60 63
17 25 1 9
8 24 195 192
10 9 26 25
218 62 202 46
200 60 216 192
2 10 18 26
1 9 5 227
60 8 16 44
55 38 63 10
131 59 51 1
230 238 41 229
59 51 35 42
1 9 17 25
8 238 237 4
2 1 10 18
9 253 254 24
8 38 54 62
194 210 8 11
49 57 146 254
63 234 55 8
58 202 218 224
231 228 239 49
253 237 46 62
51 59 43 11
27 2 7 11
1 218 202 8
14 6 30 10
58 10 62 38
22 63 55 6
2 10 18 1
175 4 154 7
195 211 11 182
7 154 153 198
192 208 31 23
210 160 194 176
12 4 32 48
8 17 1 176
1 9 2 37
8 60 44 52
10 2 60 239
2 51 10 59
39 55 6 49
14 6 30 2
192 200 8 203
202 8 194 36
3 63 39 11
2 201 220 10
8 202 238 201
5 8 16 21
38 54 57 37
59 57 43 51
158 150 8 254
49 33 123 38
17 1 18 25
176 179 202 194
62 46 60 44
45 61 19 225
8 194 218 52
38 129 1 150
203 219 44 162
46 10 62 54
236 239 50 49
55 39 49 59
54 38 2 7
228 231 60 192
37 63 59 53
128 40 213 9
34 6 52 5
63 60 43 37
250 249 241 194
220 52 192 36
199 215 246 197
216 14 30 219
193 194 209 210
52 55 137 47
6 22 14 5
41 57 33 59
52 32 60 39
14 6 10 22
9 25 1 5
12 8 4 58
14 6 30 10
15 219 1 237
4 12 250 234
9 13 1 17
239 231 195 131
5 60 52 58
8 13 53 12
2 10 14 6
10 14 45 6
2 10 6 14
10 46 2 62
8 36 11 52
11 3 27 19
47 44 10 63
194 193 202 209
201 2 217 209
248 232 196 212
8 215 207 223
38 37 46 45
51 35 240 59
235 41 57 251
136 236 175 200
239 2 193 3
235 217 201 207
244 228 247 236
39 55 36 47
27 11 2 3
23 7 31 15
12 28 20 15
235 7 6 3
20 12 4 28
200 208 192 216
220 223 204 203
58 43 42 218
43 210 40 58
239 63 163 39
153 10 162 154
229 214 245 213
23 7 31 15
5 216 203 219
162 40 8 12
10 2 14 18
231 153 226 154
23 177 212 234
46 45 37 38
35 57 216 51
191 175 197 213
140 54 38 236
19 16 52 144
27 55 43 35
63 55 47 37
45 37 1 9
192 200 231 195
13 5 8 29
46 8 38 62
2 10 231 53
2 10 51 201
10 2 26 18
8 44 24 10
11 8 3 27
3 11 14 6
8 46 38 2
44 52 36 60
3 11 6 14
8 44 60 36
55 60 63 52
58 42 50 52
2 10 1 6
5 13 29 57
8 24 16 11
13 29 14 5
253 237 248 8
8 3 24 11
6 14 3 22
253 229 237 176
6 22 14 186
7 39 63 55
54 62 58 34
13 5 14 29
13 19 8 16
34 33 57 58
233 185 169 205
4 12 20 28
1 17 25 13
55 63 52 19
199 6 159 143
167 243 131 128
5 44 8 50
192 8 208 16
6 14 5 18
253 254 245 182
11 8 19 27
14 13 6 5
2 27 11 26
210 246 5 237
1 2 9 17
220 176 223 179
7 51 15 23
43 32 35 12
1 9 231 4
8 60 52 24
1 5 9 13
8 4 24 12
2 10 228 38
2 10 203 53
2 10 18 26
8 44 60 46
3 11 202 201
6 14 3 2
2 10 14 18
3 11 202 19
209 2 193 229
7 15 3 31
2 10 18 16
10 2 18 26
46 241 45 30
12 16 8 4
6 5 14 30
15 7 6 10
27 3 11 25
6 14 5 22
10 62 9 46
11 22 6 14
9 5 13 253
8 248 251 16
8 24 16 33
13 9 2 1
4 7 8 12
8 24 16 51
10 2 26 9
1 4 210 9
4 8 12 28
1 199 215 9
3 10 2 6
57 1 2 18
58 223 236 216
51 43 231 35
49 41 57 33
227 235 199 224
202 238 230 218
55 39 45 37
192 200 208 50
53 55 39 54
51 35 59 229
58 50 32 40
13 207 5 223
32 17 40 4
5 59 13 29
5 13 29 21
1 9 10 2
8 44 60 52
8 46 10 38
44 60 52 8
8 46 38 192
8 24 44 36
3 11 8 27
237 201 229 245
8 2 10 49
11 3 27 19
12 4 20 7
8 44 62 54
60 8 36 38
1 201 17 9
60 24 52 36
218 209 210 8
14 241 6 21
8 208 192 16
8 246 230 60
247 245 237 164
13 9 1 8
191 188 255 13
59 51 43 35
41 57 33 49
60 5 58 34
37 53 61 45
3 27 11 19
5 13 6 14
213 197 205 179
255 6 247 252
13 14 1 5
224 232 227 248
10 2 57 14
14 217 6 218
59 51 43 13
55 63 51 45
34 42 55 52
33 34 233 60
59 51 247 43
14 29 30 13
243 251 13 8
245 253 237 24
18 2 10 26
199 215 243 227
241 249 58 233
1 9 17 5
14 6 30 22
8 16 24 206
9 1 25 17
8 44 16 36
60 44 8 52
8 24 46 62
228 231 2 10
8 24 5 11
11 3 27 8
2 14 6 10
8 16 24 36
11 3 8 19
