# MaxFreqExtractor features
# Channels: 2
# Frame size: 1024
# Hop size: 512
# Sample rate: 48000
# Frequencies per frame: 4
4 9 192 20
1 9 17 235
13 196 240 176
54 61 62 38
9 38 199 207
9 25 17 1
5 6 21 14
46 15 62 38
1 17 9 25
5 13 6 206
34 50 42 58
38 46 37 62
140 5 148 132
206 254 14 222
61 45 37 53
32 2 48 7
176 179 163 221
249 129 226 225
6 62 231 14
6 31 41 33
20 106 122 98
111 138 209 65
229 82 54 66
13 96 57 41
24 179 176 205
236 219 162 156
101 100 62 108
33 61 37 49
9 1 45 2
231 59 51 49
60 52 228 236
239 39 201 193
59 50 57 49
1 17 2 9
60 249 52 44
5 13 29 21
52 8 36 40
9 5 13 25
8 58 11 50
5 13 21 1
211 195 208 203
5 206 234 13
220 239 231 204
252 13 236 5
203 219 168 57
8 57 5 16
13 1 21 17
12 28 253 254
1 17 9 25
38 37 52 46
238 206 237 254
37 38 53 58
236 252 41 164
231 247 232 255
13 29 8 5
9 1 227 13
8 4 24 16
1 17 9 25
128 131 62 61
226 1 57 8
192 37 239 38
5 21 132 226
37 35 51 59
8 13 24 5
9 5 37 21
8 58 50 24
195 9 207 163
216 58 219 50
6 5 57 49
242 241 228 205
213 13 34 204
2 62 1 6
151 33 135 1
196 10 219 9
36 222 206 190
1 9 45 46
192 195 58 132
125 109 9 189
239 228 131 236
119 86 229 92
62 46 38 60
25 9 5 13
6 191 179 22
212 170 202 129
2 18 1 175
88 216 200 130
37 35 43 51
48 219 45 54
1 200 9 203
51 138 154 48
13 5 29 14
164 167 191 253
36 60 13 21
44 47 60 36
26 224 227 104
252 155 139 255
62 54 223 179
213 204 214 232
6 13 29 5
49 247 57 33
245 20 41 4
100 31 214 32
33 49 76 233
179 176 105 47
85 44 35 117
77 78 238 128
102 101 117 98
96 239 112 255
211 36 39 208
13 85 8 29
190 58 50 129
184 56 187 59
13 5 1 17
192 25 13 208
5 6 200 13
234 250 226 198
13 5 6 1
42 58 57 34
232 196 235 248
1 13 9 17
60 14 13 44
228 231 62 38
1 17 9 5
13 5 14 21
14 63 6 30
36 15 60 31
5 33 1 233
62 155 40 54
135 228 236 38
195 164 192 38
196 199 31 15
5 13 6 29
40 56 43 214
45 36 60 1
137 138 65 154
240 136 144 7
2 18 27 11
25 17 26 1
34 50 33 49
2 35 10 46
14 6 30 22
14 10 6 2
14 47 30 6
12 4 233 28
4 32 40 12
12 4 20 28
7 15 4 10
11 206 10 27
44 47 36 39
233 249 14 225
4 197 205 20
4 12 7 15
7 14 15 23
61 10 54 18
242 226 234 178
198 178 197 14
197 172 214 213
28 12 20 4
151 135 148 118
2 11 10 27
18 2 39 29
151 148 249 225
20 4 23 37
171 187 213 205
22 6 14 41
10 110 2 11
184 187 179 196
40 56 41 233
25 9 17 26
6 104 151 120
192 45 195 37
33 41 42 34
41 94 19 188
224 34 42 227
38 37 41 42
20 60 63 182
6 22 5 30
1 9 17 16
195 192 211 208
49 203 22 6
214 198 37 213
63 55 49 57
8 24 16 20
55 7 63 36
9 1 4 17
12 4 47 56
14 10 2 13
9 1 32 215
4 12 20 28
6 14 13 240
9 4 1 12
12 4 233 56
14 6 13 22
5 9 199 223
56 32 4 12
13 14 196 212
9 10 4 2
1 4 32 9
14 30 6 13
215 199 212 223
12 28 42 3
14 6 30 40
5 13 21 175
28 4 31 12
250 242 7 226
15 7 62 31
15 160 196 30
12 28 4 20
13 197 29 5
15 23 7 43
47 63 44 60
37 53 61 19
48 32 139 51
57 58 132 81
31 15 23 1
207 238 136 175
92 172 234 58
46 63 34 51
20 12 221 23
197 37 213 53
142 158 141 186
20 213 157 247
62 61 8 24
235 231 230 99
4 234 1 9
9 13 25 29
10 54 26 38
6 10 5 14
9 1 32 48
13 176 196 5
5 13 29 33
14 30 56 40
9 1 17 25
13 5 9 1
57 14 59 54
1 4 9 45
9 1 13 25
5 13 57 6
56 40 48 32
9 1 25 17
13 5 6 1
244 247 54 231
1 9 17 235
9 25 5 13
33 13 34 53
40 56 48 32
1 9 5 25
1 9 5 13
231 56 239 219
1 9 143 44
5 13 9 1
5 250 6 147
38 54 143 62
9 1 17 25
13 5 21 29
61 236 50 147
9 1 17 32
5 13 29 21
37 53 61 52
48 50 32 9
5 179 163 21
5 62 45 46
50 40 203 44
37 9 38 1
13 140 5 233
228 60 151 63
46 38 45 37
5 9 21 13
25 9 17 232
201 45 217 180
196 85 17 25
18 167 2 183
135 210 151 67
216 221 227 8
167 211 183 208
16 19 225 17
54 38 46 9
29 17 249 186
2 18 221 1
131 128 42 52
42 54 50 34
54 38 62 46
54 221 53 62
53 61 138 226
187 159 184 220
29 30 36 21
126 228 60 52
2 12 3 109
159 140 249 250
205 206 197 213
15 7 3 11
7 23 15 31
31 15 233 23
234 250 221 206
15 7 27 2
7 23 15 31
149 133 150 134
227 224 178 214
15 23 7 62
15 31 12 28
125 116 61 126
206 197 53 134
171 187 184 37
56 250 187 249
20 53 23 4
34 50 30 49
54 38 176 62
151 135 132 46
53 52 36 61
32 48 40 22
26 18 25 10
44 60 41 57
159 156 154 143
37 53 45 60
128 239 236 144
34 16 50 3
24 16 27 19
183 167 164 220
37 53 146 25
187 78 207 85
91 32 228 48
230 213 148 208
23 39 201 142
167 57 41 186
18 21 157 17
128 131 228 36
33 49 41 57
213 221 205 179
31 62 23 54
158 142 27 61
9 1 17 25
2 18 10 13
1 9 37 239
1 9 2 46
13 5 33 21
195 36 227 39
5 4 13 9
13 25 17 1
13 14 52 5
56 38 199 40
9 1 13 5
5 29 21 13
12 4 45 37
9 17 1 25
5 13 6 14
214 221 213 243
207 54 215 62
132 148 196 54
29 197 244 14
187 179 54 62
9 17 1 25
5 21 6 13
200 219 203 14
17 9 25 1
5 17 1 18
41 204 49 42
46 15 7 54
23 15 44 60
33 34 57 41
206 56 205 32
7 23 11 15
31 15 47 39
28 25 39 31
45 242 148 51
19 54 3 1
53 197 41 56
213 37 197 187
156 12 28 159
12 206 15 61
61 45 52 36
187 22 184 171
151 148 220 223
128 101 117 131
41 6 54 36
9 8 25 5
1 9 5 13
204 1 38 9
4 20 13 12
7 15 32 48
5 28 8 12
13 5 6 14
233 225 8 133
6 13 5 14
164 180 43 204
5 13 17 6
231 131 228 128
50 38 33 54
34 10 50 9
62 60 61 52
13 5 29 14
206 198 228 205
9 17 1 8
2 10 18 1
1 5 9 13
43 2 155 9
158 254 142 120
25 1 17 9
24 8 27 41
187 168 184 171
61 4 53 45
1 17 9 13
2 10 228 236
1 41 9 49
10 45 2 9
34 33 41 42
45 53 10 37
17 1 158 13
131 128 235 251
12 21 4 29
1 9 25 17
46 131 38 54
30 29 14 13
51 59 35 43
5 6 21 1
11 192 231 224
243 251 13 8
49 41 46 57
240 224 243 227
21 5 1 194
56 1 59 40
195 167 175 211
55 32 1 63
24 8 27 16
252 167 172 183
31 199 243 235
5 6 21 231
24 8 16 4
225 226 195 54
16 208 222 49
201 139 175 186
12 205 45 15
118 117 101 102
131 147 231 228
41 50 42 98
82 87 135 132
62 3 19 222
205 175 54 57
88 97 171 45
164 125 108 116
34 6 42 5
33 49 34 50
201 202 167 217
187 255 171 184
245 121 177 246
239 189 28 96
47 78 92 252
92 126 64 230
4 7 22 15
163 234 45 18
41 175 34 33
218 175 20 249
31 137 23 153
134 221 30 28
23 31 56 15
250 221 249 148
163 23 160 7
191 175 172 188
54 8 213 3
179 176 132 135
53 37 199 54
53 20 37 4
5 13 41 33
13 1 2 10
22 6 30 14
224 132 11 27
205 206 222 214
37 38 34 46
11 27 18 19
27 19 31 15
40 207 176 204
54 62 38 46
197 11 27 213
175 4 28 184
18 17 228 244
201 193 163 43
32 48 17 18
14 172 188 10
193 227 163 224
54 9 3 26
244 230 235 198
37 53 192 46
151 204 48 56
9 25 10 18
10 35 40 32
5 12 13 8
197 198 225 214
14 6 30 22
4 12 7 15
205 233 221 241
3 7 15 4
35 10 32 43
10 14 26 30
198 222 206 214
14 10 30 6
14 178 39 162
14 226 30 6
42 58 34 50
42 58 22 30
50 32 52 34
58 52 54 60
42 34 58 50
243 46 54 240
205 46 221 54
24 16 8 200
14 30 13 223
222 206 198 203
197 205 221 198
61 45 46 62
63 16 47 8
207 204 223 220
132 140 143 52
251 235 128 143
186 205 222 221
30 14 198 53
1 45 12 37
243 227 240 224
25 8 151 9
21 22 6 29
54 160 42 159
54 38 225 46
29 34 53 33
37 211 208 53
56 231 220 4
1 247 244 231
13 29 68 213
41 54 42 199
13 5 8 9
44 60 63 36
215 35 223 199
38 54 63 207
43 59 234 162
48 9 46 223
4 47 250 32
13 5 14 6
1 17 215 199
14 30 56 4
1 13 2 9
4 7 1 2
46 205 197 179
231 228 239 236
1 9 17 32
50 12 4 175
6 22 21 14
9 5 10 1
200 4 236 12
13 14 25 9
15 31 7 23
19 3 27 11
1 13 9 5
12 40 15 43
41 35 33 51
12 4 28 20
14 6 30 22
3 207 19 227
47 13 63 29
163 69 70 171
202 180 183 164
171 187 180 179
155 226 231 247
9 24 135 49
14 6 13 5
11 37 19 229
21 42 50 212
93 35 69 42
68 93 167 164
217 218 48 164
15 249 12 125
219 166 57 26
63 62 47 15
9 1 4 25
5 13 6 9
50 58 200 254
14 42 6 58
232 215 199 235
13 29 6 5
238 46 237 32
9 10 45 25
46 62 45 47
53 61 140 248
29 13 5 54
195 211 183 203
1 17 8 25
5 6 13 21
57 58 43 248
46 60 44 63
12 4 37 53
41 33 232 240
180 203 164 172
226 250 198 213
182 220 166 191
21 5 13 29
22 14 18 30
9 255 17 1
14 6 22 13
10 53 23 37
203 200 236 239
190 153 154 196
254 147 207 253
231 247 195 228
24 9 199 27
13 14 29 190
49 27 47 239
1 231 143 151
5 1 9 21
13 5 29 57
231 228 239 47
9 239 1 236
9 1 17 243
196 184 187 5
54 53 38 37
208 52 231 239
240 140 224 243
172 188 191 175
128 144 58 27
47 11 27 8
1 101 25 24
5 10 9 252
37 38 209 246
53 224 248 61
227 243 240 41
37 38 54 53
8 16 33 20
255 12 252 28
41 201 50 34
122 70 161 185
218 56 202 63
76 102 119 174
249 143 206 252
53 206 48 49
33 41 185 12
13 4 14 222
69 70 206 145
127 111 124 108
244 143 60 115
197 213 214 139
15 7 63 35
31 15 43 59
20 206 222 23
214 198 177 207
7 70 15 41
23 177 178 15
198 157 133 142
236 252 57 58
14 7 30 54
231 13 198 41
206 250 192 222
204 242 237 196
249 7 48 204
4 31 15 63
157 243 28 151
33 206 49 34
5 28 13 4
49 1 33 6
143 206 255 239
247 244 13 42
94 14 6 186
45 60 61 44
24 8 27 16
25 196 13 26
147 178 144 131
132 135 143 89
135 117 118 108
45 219 209 124
214 190 196 232
155 152 124 89
195 255 31 38
88 111 294 6
202 120 81 216
123 102 249 120
236 194 76 297
239 76 255 53
70 206 120 222
198 139 206 112
81 127 111 244
120 104 123 228
78 81 70 139
217 218 135 201
38 12 14 54
4 12 51 43
203 195 219 239
226 242 201 250
239 236 231 50
9 227 50 1
9 1 25 17
13 5 29 21
61 37 4 44
9 1 227 56
9 13 1 25
14 13 5 6
50 236 49 45
1 9 17 25
13 5 220 41
6 49 56 50
1 9 44 195
9 1 25 17
13 5 224 240
131 144 147 128
1 143 17 9
5 25 13 17
13 54 14 47
215 199 177 58
9 12 1 17
53 10 37 54
54 62 6 38
1 9 17 208
1 2 9 25
10 32 26 48
50 44 195 47
1 183 2 160
2 18 162 201
23 7 38 120
92 76 95 220
239 252 236 209
253 214 255 79
231 247 57 15
124 220 108 121
204 210 76 79
214 190 198 98
90 89 253 74
124 90 135 229
124 127 109 108
200 127 216 180
12 210 28 203
205 206 225 233
13 5 29 60
10 2 18 14
13 5 29 1
2 1 6 9
5 8 33 13
13 6 14 5
243 54 8 251
203 9 1 219
60 44 62 63
17 1 25 9
60 45 61 46
209 210 199 194
52 36 44 53
5 13 33 29
247 10 132 240
13 5 1 29
2 1 199 196
5 12 6 60
255 239 57 195
228 60 57 58
24 25 239 9
10 41 57 49
13 224 240 227
183 228 10 175
243 227 5 240
183 203 231 219
201 251 230 182
239 231 203 195
5 13 60 192
1 2 9 53
8 5 20 16
5 6 1 240
52 60 203 44
13 195 14 187
36 38 192 236
8 5 13 29
42 175 49 172
5 13 1 21
2 1 10 195
13 8 1 25
6 48 13 5
8 58 252 57
195 192 219 239
200 250 249 52
6 14 5 13
5 13 42 44
199 196 224 227
249 138 15 70
5 52 139 248
228 51 236 231
5 21 13 41
231 2 239 10
13 21 5 36
9 215 231 176
211 1 228 208
131 36 237 255
128 2 131 54
238 67 235 64
159 24 52 156
5 237 54 6
211 208 195 66
5 114 62 46
198 54 62 141
38 46 37 39
36 52 231 228
146 19 251 130
6 217 3 14
12 28 47 45
175 172 5 167
15 254 12 166
190 14 20 13
212 184 187 93
34 71 163 132
177 43 89 180
134 147 144 334
122 107 123 115
36 113 39 243
2 247 197 165
75 251 78 176
188 191 28 219
31 28 15 54
212 23 2 58
7 54 62 23
1 9 17 4
9 1 25 17
1 9 2 17
43 35 59 34
38 46 54 62
53 61 33 151
228 244 6 184
45 60 44 52
143 159 235 227
1 5 9 13
29 13 21 5
54 62 36 63
48 32 50 56
13 181 14 2
56 40 48 59
32 40 58 44
17 1 9 18
224 132 227 33
53 37 61 244
164 142 187 130
33 137 55 178
25 138 17 43
226 208 197 198
22 14 30 24
58 57 222 242
40 17 32 10
4 207 236 12
209 129 193 217
239 131 231 255
53 61 35 43
223 14 198 220
14 198 6 30
197 4 12 47
12 4 28 177
233 249 139 241
4 55 20 36
207 212 10 196
14 198 226 242
30 6 14 22
12 205 222 28
32 205 185 186
32 1 8 4
12 4 9 224
143 140 249 28
206 214 168 222
45 220 196 61
155 249 228 198
177 214 47 44
63 47 25 17
22 135 18 2
46 44 47 38
62 45 46 61
6 54 15 31
48 28 2 51
45 15 61 12
222 32 15 221
198 226 249 197
37 26 42 183
25 26 9 46
59 56 43 27
197 198 213 162
16 24 8 4
51 49 19 16
231 247 239 228
205 206 250 169
4 198 48 28
226 242 49 50
17 8 12 9
5 13 202 14
7 4 48 51
44 36 47 60
61 53 220 63
62 46 38 236
234 226 250 134
10 2 251 248
1 207 204 143
239 14 203 6
13 17 224 248
199 235 207 45
249 14 250 233
17 18 215 9
32 48 53 37
61 195 192 197
46 54 62 38
48 32 25 40
28 12 4 51
9 25 5 13
40 12 236 4
1 2 17 199
8 24 17 1
9 12 27 3
14 241 6 13
10 2 18 26
15 7 23 31
12 4 40 20
214 243 251 60
15 41 231 7
7 24 15 16
37 38 33 32
237 221 233 225
8 235 1 251
58 57 53 41
53 45 61 171
229 7 4 193
230 182 202 24
15 7 137 3
19 4 13 29
24 27 32 40
27 3 209 11
211 203 57 49
197 177 205 225
236 254 150 239
2 1 18 10
45 55 63 61
215 199 223 1
9 25 1 13
13 5 25 9
40 56 192 231
9 1 17 25
9 17 1 25
13 5 21 53
40 56 54 61
9 1 36 25
13 5 29 1
204 196 212 220
56 4 50 45
199 9 1 235
1 5 9 2
144 254 203 147
