# MaxFreqExtractor features
# Channels: 2
# Frame size: 1024
# Hop size: 512
# Sample rate: 48000
# Frequencies per frame: 4
1 3 4 2
1 3 4 2
1 3 4 2
1 3 4 2
1 3 4 2
1 3 4 2
1 3 4 2
1 3 4 2
1 3 4 2
1 3 4 2
1 3 4 2
1 3 4 2
1 3 4 2
1 3 4 2
1 3 4 2
1 3 4 2
1 3 4 2
1 3 4 2
1 3 4 2
1 3 4 2
12 13 15 141
50 82 153 81
37 194 195 27
237 193 229 173
11 3 27 51
15 31 44 17
24 29 25 28
29 21 13 5
1 29 17 21
25 9 17 29
208 192 244 211
21 5 13 29
17 1 219 25
18 188 211 26
5 21 29 1
1 17 21 2
211 33 41 208
13 5 28 29
21 29 5 1
255 252 200 17
211 5 247 208
9 21 29 5
25 45 46 10
5 13 21 29
44 225 54 233
13 12 5 4
30 22 29 32
6 63 47 253
30 29 14 6
32 30 14 6
30 29 14 6
32 40 35 43
30 2 35 43
35 43 32 30
2 30 18 10
43 35 40 211
30 2 35 18
43 35 211 2
43 35 26 18
3 254 238 44
32 40 48 14
34 55 42 41
11 27 217 55
3 19 55 27
211 195 247 39
203 219 200 216
211 195 202 218
200 216 219 26
18 12 2 35
24 62 46 103
211 18 225 2
46 62 61 26
208 226 225 211
219 62 25 47
8 54 245 24
249 233 63 47
19 200 216 27
45 44 36 46
25 9 17 26
24 16 8 27
45 37 26 61
17 25 1 24
46 231 45 228
25 5 9 26
16 24 8 27
45 18 44 247
25 33 34 5
37 45 46 52
25 196 212 17
38 46 54 62
18 17 26 220
24 29 16 1
25 9 45 61
45 61 44 60
9 40 146 32
30 29 14 13
25 61 215 20
60 44 20 251
25 26 10 9
45 46 61 25
29 156 140 21
32 180 38 46
30 14 35 47
25 9 223 17
155 37 239 45
17 25 26 18
210 46 38 194
26 18 10 25
41 217 57 209
19 34 27 3
45 209 217 210
25 17 251 26
44 60 33 36
26 25 10 18
16 24 8 17
45 61 37 47
25 24 53 210
38 216 46 16
18 26 10 2
222 242 206 214
15 7 26 10
7 15 23 31
4 12 7 27
199 248 220 215
15 23 31 59
4 12 20 28
1 10 2 224
57 52 36 60
2 10 200 231
1 9 17 25
8 24 16 60
5 57 13 51
38 54 46 52
5 13 1 9
1 9 216 231
10 2 18 26
13 5 58 34
236 10 200 59
1 17 9 8
195 211 63 45
8 29 24 60
46 45 10 2
13 29 5 21
37 9 45 1
8 24 16 5
13 5 6 1
40 56 228 46
235 251 13 232
247 195 231 244
194 198 251 210
2 10 18 235
200 192 216 13
9 1 25 17
52 8 60 4
1 9 17 13
10 2 35 43
5 13 1 29
1 9 37 25
8 50 34 58
6 14 2 5
231 5 247 180
234 226 206 198
8 7 15 11
18 7 23 2
231 57 239 195
5 13 206 1
36 7 39 23
13 5 12 20
2 10 1 14
59 43 51 7
13 5 29 211
228 236 192 244
8 251 34 11
7 192 236 228
199 196 215 8
195 203 211 52
8 206 192 254
2 1 10 18
13 29 57 44
9 1 17 25
8 54 38 60
5 13 1 21
10 2 228 1
13 5 44 36
37 195 53 45
206 142 222 150
14 6 30 10
56 58 40 42
31 15 46 7
2 10 1 18
13 14 29 30
34 33 61 55
178 162 234 226
222 221 206 250
211 208 195 241
34 27 50 209
8 24 16 17
1 17 9 25
8 16 24 52
1 9 10 2
8 60 44 36
10 2 26 9
5 13 29 21
10 45 9 61
8 16 24 33
9 1 17 25
46 38 52 44
13 5 9 1
231 60 195 52
5 13 8 52
2 10 1 9
13 5 8 50
1 9 239 13
192 8 128 236
1 251 235 207
236 228 192 200
1 9 13 5
10 2 18 26
5 13 29 21
9 1 10 45
60 5 8 52
1 9 13 5
8 60 44 38
1 13 9 5
203 228 239 200
13 5 6 29
239 231 195 203
5 13 1 17
1 9 10 17
227 243 199 235
227 235 195 211
236 192 200 239
6 18 14 26
231 239 46 45
9 17 1 13
58 10 40 42
5 13 21 29
1 9 17 2
60 52 44 54
5 9 1 13
214 198 222 46
13 5 29 1
192 200 195 208
8 4 179 20
231 195 203 228
24 8 16 33
37 45 2 38
6 5 22 147
37 38 198 214
239 231 155 255
34 33 50 42
37 45 62 53
25 17 9 1
46 38 37 45
25 17 26 9
24 16 8 27
231 247 239 255
209 193 17 196
231 46 239 209
25 37 9 53
24 16 8 33
4 1 9 8
13 5 9 29
1 17 9 29
252 236 200 244
5 13 1 9
13 29 5 9
203 219 211 195
41 9 13 33
13 5 29 21
231 247 239 219
5 13 9 1
5 13 29 21
235 227 243 251
13 5 1 9
52 34 42 35
207 199 204 215
41 33 5 13
14 6 30 4
9 1 25 17
61 190 189 195
34 50 42 47
13 5 29 14
47 44 39 36
239 203 195 131
13 5 29 9
6 14 5 54
1 9 199 13
10 2 18 26
44 60 47 52
4 12 8 53
1 9 17 10
43 59 35 51
40 9 17 56
13 5 29 21
4 43 12 35
1 9 17 25
43 35 53 59
30 18 22 14
234 30 2 18
226 234 198 233
255 211 239 247
211 30 219 137
42 32 41 11
13 5 9 29
10 62 54 46
4 52 5 8
4 7 12 20
196 204 212 47
51 59 35 38
255 226 159 250
13 8 5 33
206 12 214 4
50 56 40 32
29 13 21 5
25 9 17 1
54 38 62 46
9 1 8 13
196 5 13 14
29 216 171 163
33 41 30 34
29 1 21 8
14 13 29 21
54 41 219 33
40 4 26 49
227 224 240 235
43 40 39 32
199 4 207 9
1 9 5 13
13 5 194 29
192 208 195 244
1 17 9 207
13 14 6 5
219 239 236 203
47 39 63 44
13 5 6 14
8 16 24 5
215 223 199 204
34 42 14 52
9 1 4 13
1 9 17 25
139 203 239 219
32 227 224 1
15 7 225 249
4 12 208 242
1 9 17 27
43 35 40 59
40 32 56 24
34 42 58 41
14 6 230 238
11 3 9 1
47 39 44 63
62 54 36 44
13 5 29 9
13 5 14 43
50 40 56 44
9 24 1 8
212 196 6 204
1 9 4 45
15 7 44 25
57 58 34 42
1 9 17 25
222 219 17 18
24 27 11 8
222 42 206 58
14 6 30 13
207 227 235 223
232 248 247 240
44 60 47 63
16 172 237 6
6 5 10 2
55 17 52 56
2 1 9 18
53 61 13 4
199 55 237 229
196 212 199 220
50 51 35 59
50 58 34 236
1 5 9 13
4 7 12 15
239 9 236 40
34 42 50 56
5 13 6 14
9 1 56 40
1 9 17 25
192 43 181 5
222 214 206 213
57 54 49 38
50 34 58 49
35 18 26 17
49 56 33 50
6 15 22 40
182 181 19 114
55 164 39 45
9 1 25 17
38 1 46 37
227 235 230 238
195 239 203 231
17 1 9 25
60 52 36 44
1 9 49 17
18 2 10 26
5 13 34 42
9 1 25 17
8 24 16 243
5 13 21 29
46 38 2 10
251 235 243 227
231 247 239 236
198 206 194 214
195 239 231 203
236 228 244 252
35 43 207 196
5 13 29 21
49 1 57 17
62 46 54 44
13 5 1 9
2 10 59 47
8 1 9 5
6 14 10 2
46 56 15 38
195 232 235 227
192 200 208 216
239 203 231 195
236 228 192 8
13 17 5 29
57 58 50 49
5 1 13 9
58 42 52 36
205 206 221 141
1 9 2 17
60 44 63 36
1 8 9 16
4 208 12 192
13 204 196 176
195 192 228 231
13 1 243 9
37 45 53 231
8 57 41 58
2 10 1 9
60 47 63 54
1 9 5 4
8 4 12 40
7 5 13 15
231 228 239 1
13 14 5 6
2 18 10 43
5 21 29 13
1 17 9 25
40 32 34 56
5 13 36 52
5 13 21 29
56 54 53 61
255 41 239 252
5 13 43 35
1 17 9 25
47 44 40 60
42 5 9 60
13 14 29 5
1 17 61 43
208 13 216 5
5 226 21 186
14 42 35 10
1 9 17 25
1 9 17 2
14 13 6 5
38 54 36 62
1 9 17 25
7 15 3 59
56 57 34 58
207 199 223 215
212 62 54 220
38 46 62 54
13 5 29 59
35 43 50 57
9 1 17 25
10 14 6 2
11 63 27 47
1 9 199 223
196 240 212 5
56 4 40 48
216 16 236 152
13 5 21 29
8 4 12 16
1 13 9 5
4 7 24 8
45 46 62 61
251 176 187 13
38 44 37 47
204 196 224 220
61 44 5 45
207 4 12 55
5 13 6 4
14 6 30 44
40 56 32 48
176 196 212 198
9 1 214 248
56 150 48 133
222 250 214 206
244 180 228 247
4 12 8 1
17 10 25 18
9 1 5 16
17 9 5 25
14 30 6 22
15 7 9 206
2 10 223 42
38 54 46 62
243 146 227 219
248 240 243 251
227 235 163 214
228 192 236 200
214 198 222 158
224 240 196 232
1 9 4 12
219 203 211 216
26 25 18 211
41 33 5 42
1 29 227 251
139 247 231 239
193 229 209 8
5 13 6 14
1 17 9 10
211 195 183 247
214 198 244 206
29 13 5 21
25 26 10 30
32 40 42 54
60 34 50 58
58 40 43 57
12 5 4 21
5 29 13 21
1 2 10 9
13 5 29 36
47 216 244 190
195 203 232 239
244 252 247 17
223 207 215 254
224 196 232 235
17 1 25 9
36 52 55 60
35 57 44 5
1 17 9 25
49 33 43 41
5 9 1 13
9 1 10 25
54 62 40 44
9 1 13 5
251 243 223 235
203 211 219 239
198 192 197 208
254 28 207 246
227 235 224 232
208 17 192 216
214 213 12 221
232 224 235 227
17 1 25 2
40 56 43 59
42 58 50 34
5 6 13 21
233 225 234 40
252 236 215 205
56 236 209 32
7 31 15 198
239 195 231 247
1 9 236 200
5 13 29 21
29 21 5 13
200 192 37 203
13 5 29 9
6 14 5 13
199 8 227 16
1 9 13 5
53 13 195 5
51 35 59 32
5 13 4 8
42 58 37 57
232 192 248 235
13 5 29 36
4 12 207 28
58 50 57 42
44 47 60 57
29 21 13 5
199 207 176 243
47 39 63 44
62 36 46 52
51 48 32 35
229 237 58 42
9 25 17 1
10 40 2 63
1 83 80 67
18 53 43 2
29 203 28 13
6 14 242 5
239 255 252 53
244 247 228 231
1 17 15 31
230 2 246 154
243 143 251 227
52 60 5 36
36 52 43 55
39 36 55 53
13 29 5 21
16 24 8 224
167 231 38 37
237 61 154 37
192 208 24 8
2 10 1 25
49 57 33 41
46 8 38 62
2 1 203 51
28 238 193 230
10 224 144 208
2 10 27 18
63 55 202 218
192 10 208 50
36 39 47 55
198 202 60 54
57 41 49 58
1 2 10 9
3 137 19 251
226 240 234 242
58 57 49 50
39 55 47 63
206 222 214 198
31 23 147 44
13 5 2 14
8 25 9 24
42 34 50 58
4 7 12 20
202 226 250 234
2 10 14 18
42 34 58 41
40 43 32 35
231 209 193 239
5 13 1 4
8 55 52 44
5 1 13 9
60 44 46 192
1 9 5 13
60 62 44 52
45 203 1 63
8 12 5 28
10 2 9 6
13 33 5 49
10 2 18 26
13 5 29 60
51 35 26 10
13 5 29 21
1 30 14 13
235 251 207 199
208 192 200 216
235 196 227 199
29 21 5 13
10 18 2 26
23 15 7 31
6 10 22 14
34 28 42 50
56 41 59 57
44 36 8 24
241 225 205 1
207 49 33 204
40 253 43 50
33 34 60 57
11 27 10 18
195 192 211 208
56 32 40 48
8 24 16 12
10 2 26 1
56 50 48 58
28 12 4 20
9 62 1 46
12 36 37 9
14 2 6 1
13 240 253 245
204 196 168 220
220 223 212 204
4 231 12 207
32 35 48 38
1 9 17 4
12 4 28 20
57 5 13 51
228 1 40 231
251 243 248 240
231 175 239 255
214 198 206 10
13 14 196 6
37 36 53 45
59 33 49 9
8 12 24 16
13 5 14 6
1 9 175 172
4 12 243 8
239 231 247 255
10 2 1 9
203 239 33 195
45 53 61 37
253 237 245 55
16 24 12 8
5 13 21 29
46 10 2 38
13 5 1 9
1 9 39 47
10 2 26 30
34 42 58 14
1 9 4 12
8 227 232 235
203 45 219 195
41 244 228 194
10 26 14 6
13 29 5 30
37 45 53 47
8 12 4 205
6 5 14 13
24 16 8 17
55 37 63 39
47 45 222 242
222 221 213 214
1 47 39 9
14 6 30 22
12 4 28 178
12 4 20 28
35 43 32 7
10 9 1 2
212 220 204 63
14 30 17 25
222 198 214 206
205 221 47 250
14 6 236 30
4 12 9 1
13 5 29 25
54 231 62 239
9 1 25 17
9 1 5 25
14 192 56 200
9 1 25 62
1 207 204 2
46 45 12 61
1 56 40 47
14 13 6 10
236 192 228 200
9 1 17 25
14 6 30 13
26 10 18 6
4 12 240 243
35 43 51 59
226 231 242 234
14 5 13 6
199 215 47 222
227 9 40 8
225 14 6 241
58 17 157 50
35 18 43 32
9 1 25 222
42 37 45 63
47 205 222 221
14 6 30 45
12 4 28 9
4 199 207 200
35 57 54 32
1 17 9 25
228 192 244 231
9 1 25 12
14 6 13 30
246 234 230 4
42 12 58 4
205 241 213 206
10 26 2 9
33 41 5 49
23 54 38 7
32 35 8 40
225 233 205 197
7 4 20 23
204 207 220 32
7 15 4 23
18 196 224 212
10 14 2 18
32 41 59 51
47 14 63 39
32 4 12 35
215 199 243 27
10 237 189 26
15 7 35 234
29 13 5 25
241 177 7 13
34 170 234 178
12 4 56 15
226 233 242 225
7 15 4 23
232 12 222 61
214 222 198 213
222 206 214 250
211 240 39 224
213 197 6 205
198 242 226 250
1 17 9 5
57 1 55 41
8 16 24 5
2 45 10 1
8 57 60 13
2 10 1 9
13 5 8 14
203 239 231 195
8 24 16 198
14 6 30 2
236 192 228 239
1 17 9 8
58 49 231 50
8 5 13 57
2 10 1 9
44 60 52 36
1 9 5 25
8 12 4 205
13 5 6 14
228 236 192 38
13 5 199 1
195 203 211 239
8 57 41 33
2 10 14 6
44 50 60 58
1 9 17 25
8 60 12 52
5 13 29 21
10 2 46 9
5 13 8 1
195 203 231 239
8 206 198 214
14 13 1 2
192 228 200 244
7 23 15 4
5 29 21 13
5 13 21 29
24 8 12 38
13 5 29 14
2 10 1 9
33 5 41 8
13 1 5 29
52 60 38 36
9 1 13 5
192 208 203 200
15 57 227 41
195 203 14 6
13 5 34 6
2 10 1 231
8 5 13 17
1 9 17 13
8 52 60 44
13 5 14 1
5 13 12 8
5 13 1 9
9 1 239 231
8 60 52 206
1 9 17 5
18 26 22 30
2 18 236 252
38 40 46 32
182 181 166 200
9 25 8 24
255 196 174 201
208 144 192 147
52 55 238 254
24 119 103 208
53 37 59 61
54 38 58 206
246 230 254 245
13 248 5 156
48 56 32 40
9 1 17 25
248 9 240 1
228 79 4 76
9 171 1 25
5 6 176 53
1 9 17 2
140 143 4 156
250 13 17 7
35 43 32 40
24 16 9 1
23 43 31 7
8 4 12 16
5 13 29 21
56 59 12 48
204 207 220 215
21 5 13 29
4 7 20 12
206 4 205 133
21 29 8 60
174 196 178 162
116 96 113 100
2 18 10 1
7 4 159 135
249 241 225 233
9 48 25 51
5 13 14 6
59 51 43 60
40 32 54 62
189 173 203 181
169 211 165 195
8 17 25 24
25 17 11 16
132 156 159 148
45 61 46 37
63 59 56 43
220 204 159 215
29 9 25 21
15 31 28 12
147 144 248 211
60 44 52 36
171 187 174 201
57 41 49 33
15 12 7 4
2 206 18 205
53 61 48 32
243 227 197 163
10 26 2 18
247 244 147 252
62 44 60 36
160 174 213 214
8 17 24 33
3 16 8 24
250 234 226 233
35 32 36 49
53 37 249 54
3 136 146 235
1 9 4 17
39 47 63 33
6 4 3 5
208 1 216 55
33 41 34 214
25 9 17 1
224 232 240 227
1 17 9 25
47 44 58 56
206 10 222 194
1 2 17 9
8 24 13 29
37 49 53 45
8 16 24 5
6 14 5 13
192 228 236 195
231 135 143 140
18 2 14 219
13 29 5 14
1 32 40 48
4 12 5 20
57 49 43 58
10 2 9 26
13 1 42 5
208 192 200 205
207 204 12 195
6 37 45 203
244 252 228 255
32 35 59 38
13 5 4 12
5 21 29 49
10 2 46 38
204 220 199 207
239 13 14 231
5 29 12 1
10 2 18 14
44 60 13 36
9 1 25 17
4 12 20 8
49 57 36 33
2 10 18 26
13 5 29 14
9 25 1 17
16 24 8 19
34 58 42 50
46 43 59 10
14 6 10 9
53 61 37 45
198 8 214 206
12 4 28 20
41 42 244 241
10 235 207 35
17 25 1 18
36 44 39 47
9 12 16 8
18 2 26 17
52 44 35 36
1 9 17 25
39 36 55 63
235 227 8 251
10 2 9 14
56 40 48 32
45 37 46 51
30 14 44 47
21 5 29 224
46 45 37 38
196 244 132 204
36 44 42 52
215 223 207 212
44 18 60 37
244 252 140 247
39 47 63 61
13 5 29 21
16 24 8 1
16 24 8 17
5 13 21 29
44 173 36 223
9 1 17 4
204 196 212 215
60 63 233 169
47 39 215 31
13 5 29 245
47 39 63 14
36 31 44 23
31 23 19 27
35 56 43 59
2 10 11 3
149 133 11 241
9 137 47 39
137 153 44 7
4 129 137 7
4 229 12 7
14 35 6 43
249 241 157 145
249 241 250 242
214 213 250 222
63 55 47 53
44 60 54 36
40 32 54 43
34 33 41 57
59 43 35 32
32 48 56 40
25 9 17 26
47 30 12 39
47 39 63 55
23 31 39 47
31 23 51 38
31 23 59 33
35 43 59 51
43 40 35 59
43 40 50 59
43 40 59 34
212 186 204 220
186 212 222 180
207 204 172 180
212 169 204 161
225 233 241 249
226 234 158 242
19 3 27 7
47 39 63 55
31 23 27 51
7 15 31 23
219 203 161 177
36 44 39 47
223 207 220 215
16 1 24 25
7 15 23 4
225 197 241 249
49 35 43 57
169 177 161 233
18 26 30 2
7 15 23 31
32 241 197 35
198 197 214 206
51 12 26 59
32 218 48 202
177 225 226 178
238 153 137 154
36 52 44 60
13 5 1 8
5 13 1 9
8 60 44 24
1 9 239 2
8 254 60 46
2 10 1 9
13 5 60 29
1 9 10 2
8 24 16 5
13 1 5 9
38 46 45 37
5 13 29 21
37 1 9 45
8 24 16 60
14 2 1 6
192 200 236 228
1 9 5 204
60 231 52 239
1 13 5 17
10 2 228 236
13 5 29 21
37 195 203 231
8 24 16 5
2 1 9 10
43 59 50 60
1 13 9 5
195 60 203 63
8 13 57 5
2 10 239 18
13 5 29 60
1 9 231 2
8 5 13 60
9 1 13 25
38 46 54 52
5 13 1 9
228 244 192 231
227 243 199 235
3 239 19 10
237 253 218 193
1 9 37 53
8 12 4 28
13 1 9 5
10 2 46 38
5 13 33 1
44 36 54 2
5 13 8 1
195 10 2 211
57 33 41 34
9 1 10 2
200 8 216 192
1 9 17 57
38 10 60 44
13 14 5 29
41 57 33 63
16 44 24 29
6 2 14 1
58 61 50 44
204 220 196 212
57 49 53 58
55 63 39 47
55 63 39 47
63 55 60 59
11 3 19 27
3 15 11 7
15 7 3 11
11 19 3 27
119 27 19 11
63 55 27 19
4 5 60 55
54 55 63 39
50 49 34 57
196 251 248 240
196 185 204 186
48 56 24 32
29 60 44 192
13 5 6 54
195 203 6 14
53 61 60 45
61 53 62 54
8 24 16 1
1 9 58 227
62 54 16 24
213 221 26 18
187 171 9 8
27 48 249 56
11 8 3 24
8 16 24 1
13 5 1 18
44 36 60 47
50 58 8 28
62 54 38 46
15 7 31 23
244 228 247 231
32 40 44 36
220 173 189 166
223 215 185 169
7 4 15 12
222 14 214 206
35 21 29 36
16 8 5 12
7 15 23 31
250 233 134 142
35 32 40 43
175 223 219 5
203 36 195 50
32 48 40 60
9 1 10 231
43 59 35 53
29 21 6 5
140 148 232 240
226 236 200 203
13 57 29 5
223 215 57 197
31 6 23 14
8 4 16 20
13 5 29 21
1 5 9 17
13 5 1 9
1 9 5 13
1 9 13 5
1 9 13 17
9 1 25 17
9 1 25 17
227 9 45 235
231 9 239 228
231 50 45 58
38 46 9 228
11 45 46 61
28 20 238 150
5 6 13 252
28 4 12 20
6 22 2 14
15 212 31 196
250 218 172 210
41 42 255 35
35 43 15 213
52 60 36 44
46 38 45 54
243 251 227 219
26 204 196 18
9 1 25 17
5 13 29 25
60 52 44 36
54 62 38 46
203 195 211 219
215 223 199 49
45 37 9 232
26 18 17 25
208 240 243 248
22 30 36 39
5 6 21 13
10 26 2 18
25 26 17 10
208 56 211 47
29 21 211 219
215 207 199 223
9 1 25 17
247 250 20 255
1 9 47 44
29 21 30 13
215 207 223 199
9 1 17 25
247 139 7 208
1 25 17 9
29 13 21 5
215 223 207 243
5 13 4 12
244 25 17 252
30 29 14 22
38 46 63 45
26 18 10 25
231 239 203 195
30 2 215 10
223 199 215 207
212 215 223 196
223 207 176 204
13 5 9 29
26 18 10 25
60 52 44 240
200 216 192 219
43 53 54 44
44 36 38 46
15 238 7 230
14 6 30 22
40 32 43 35
9 1 13 5
244 18 252 247
23 7 251 198
2 10 1 13
16 24 9 1
1 9 2 10
29 21 16 5
25 14 6 17
236 252 228 188
53 61 12 4
54 46 62 38
207 204 223 220
2 10 14 6
36 44 60 63
9 1 5 17
228 231 236 14
207 199 220 223
14 6 15 10
6 14 2 10
195 203 211 192
1 37 45 9
8 24 16 12
37 45 55 53
57 44 8 46
10 9 13 2
5 6 13 14
206 27 198 222
14 6 2 30
44 192 60 56
1 9 195 175
4 8 16 24
41 57 33 42
10 46 2 26
13 17 1 9
37 47 63 44
8 12 9 4
12 58 4 42
51 5 34 50
6 14 10 46
17 25 195 13
49 57 33 1
195 192 203 211
245 237 230 253
2 228 236 10
5 1 13 6
37 45 53 61
10 8 26 12
1 9 13 5
8 60 44 52
1 17 4 9
20 28 12 4
14 6 7 13
34 50 42 27
14 6 13 248
15 7 12 31
5 13 29 21
6 22 14 30
38 54 46 40
199 207 227 235
56 50 40 58
33 4 57 41
1 10 6 2
1 9 12 4
2 10 14 6
5 13 1 21
12 28 4 20
33 59 34 49
43 55 57 59
236 56 40 1
4 8 254 235
203 52 60 200
5 13 8 62
224 37 227 45
58 42 50 8
1 9 17 2
8 24 16 33
6 5 14 21
5 13 241 249
200 236 192 195
9 10 4 7
8 9 13 1
205 221 206 255
1 9 17 25
7 3 4 15
8 4 20 13
1 9 17 25
9 1 13 17
13 9 1 17
5 13 21 29
58 42 40 50
200 35 43 51
35 51 48 56
56 40 48 32
10 2 9 1
40 56 32 48
9 13 1 4
9 1 17 25
13 5 29 21
5 9 13 1
13 5 33 14
54 53 15 51
5 13 59 56
56 45 4 50
231 239 228 203
1 9 45 37
9 1 60 5
9 1 17 25
5 9 1 206
14 13 18 6
4 13 20 5
13 5 57 29
5 13 1 17
236 7 228 4
44 36 45 60
46 45 7 51
4 12 28 195
25 17 9 1
42 34 45 35
32 40 35 43
212 196 204 215
27 19 11 3
6 5 54 14
8 13 5 16
14 6 30 22
12 28 4 20
219 203 211 200
58 32 42 50
4 9 12 20
37 53 45 1
39 44 47 36
33 41 57 42
14 6 223 18
199 212 196 220
35 13 29 43
1 5 9 17
54 9 35 51
30 23 20 27
192 195 208 211
9 1 5 13
14 13 6 5
4 12 1 28
30 14 241 6
232 54 224 240
137 230 134 254
34 42 50 63
55 63 47 39
14 30 22 6
14 177 161 30
241 205 221 141
207 223 53 61
32 48 50 43
4 24 12 29
231 7 228 3
1 9 17 207
1 9 17 2
2 10 1 9
206 179 254 220
13 14 5 29
231 57 41 239
236 239 231 228
9 45 133 225
1 4 9 12
57 40 231 43
13 17 25 9
37 38 54 13
12 15 240 4
16 8 204 24
6 22 5 14
42 34 52 212
52 44 36 60
14 30 6 22
200 228 236 172
37 195 242 211
13 9 45 37
1 4 9 17
25 17 1 9
199 32 204 207
15 7 135 248
204 5 196 232
5 35 43 51
34 42 50 36
29 16 21 8
219 200 203 216
13 1 239 5
9 1 4 17
1 9 17 25
1 9 17 25
45 37 9 5
249 221 233 205
41 25 16 57
35 48 5 32
52 44 60 36
46 56 59 45
195 231 211 192
9 1 13 236
1 9 37 38
5 13 6 21
9 25 1 17
14 18 192 6
220 54 23 7
46 62 61 38
40 56 14 63
10 26 2 18
234 250 32 40
13 5 1 9
32 48 14 40
207 24 223 199
12 4 241 48
6 22 14 39
4 12 9 37
225 241 242 226
2 10 18 26
15 132 31 7
9 12 32 28
16 25 9 12
42 244 211 34
1 29 13 9
2 10 14 18
36 52 58 44
37 53 2 38
8 9 1 16
205 197 2 16
57 41 49 33
10 2 8 38
13 5 29 21
63 47 39 36
206 234 242 8
5 13 6 14
10 236 228 2
1 9 243 8
55 53 39 37
13 57 29 41
1 2 196 212
251 249 52 235
204 232 1 207
52 60 36 16
255 194 210 57
236 228 252 8
14 13 6 5
44 47 60 36
5 9 25 1
43 35 58 51
54 44 62 38
2 1 10 6
43 60 44 63
15 41 57 7
10 2 26 18
251 246 192 211
37 45 61 53
33 41 8 24
46 38 60 24
59 172 56 43
27 11 3 19
40 246 254 253
218 202 207 223
45 46 38 37
60 34 58 42
228 59 244 51
24 8 13 5
201 217 27 193
35 43 24 16
10 2 6 38
231 239 247 203
201 198 234 197
2 10 26 18
58 42 34 50
38 46 37 45
18 26 206 2
203 175 221 213
209 4 206 137
17 25 1 18
16 8 24 27
1 4 45 37
12 32 8 4
35 37 51 13
1 2 9 10
6 221 222 219
42 58 60 56
214 222 7 57
214 221 192 18
38 54 62 213
34 42 58 50
7 2 23 10
241 249 225 24
43 35 51 59
199 243 227 135
1 9 17 25
13 5 196 204
59 37 45 43
1 9 236 239
13 5 9 29
14 6 13 5
9 1 17 25
13 5 9 1
54 14 62 53
9 1 10 2
13 5 10 9
200 236 192 203
9 4 1 12
13 5 57 41
4 12 20 28
13 5 29 9
7 4 35 43
1 4 17 9
1 9 5 17
35 43 59 51
45 9 53 4
54 36 44 38
9 4 12 1
5 13 21 29
4 12 56 32
1 9 13 5
14 6 195 211
1 9 17 208
13 5 1 29
7 4 31 15
10 7 23 2
54 53 20 4
220 204 207 196
15 43 7 31
33 41 207 20
47 205 57 63
61 154 242 54
62 54 38 39
29 13 17 25
251 248 227 179
195 248 211 7
170 162 225 212
15 27 7 19
45 61 192 208
7 55 3 11
4 12 203 219
17 21 5 25
6 5 13 21
43 59 133 158
133 249 145 129
27 24 28 12
33 13 29 49
208 181 30 211
50 49 33 34
59 42 43 56
3 239 255 10
205 221 133 225
216 200 208 158
220 207 223 204
206 255 252 236
160 8 28 202
57 46 62 32
60 216 212 52
3 2 10 18
1 9 13 5
8 60 228 52
37 195 239 231
8 24 4 12
239 231 195 2
5 13 29 21
9 1 10 2
8 52 42 36
1 5 9 13
38 46 53 37
5 13 8 21
203 1 37 38
8 5 13 24
203 195 211 219
41 33 46 236
2 10 1 9
52 36 60 5
1 9 17 25
10 2 60 44
13 5 21 29
10 9 2 1
5 8 13 60
203 9 195 37
46 54 38 62
1 13 5 9
192 208 236 203
13 5 8 1
239 203 255 231
13 5 57 41
2 10 239 1
5 13 29 8
1 9 49 17
60 8 52 228
1 2 14 13
192 228 44 60
5 13 1 9
2 10 18 1
128 246 5 245
37 9 1 45
8 16 24 3
49 1 57 224
192 200 195 8
1 2 176 202
59 43 231 175
9 1 13 5
49 33 50 34
13 5 29 21
1 9 17 2
8 44 36 60
1 9 195 231
60 46 44 10
5 13 6 9
38 7 46 37
1 18 2 17
51 43 35 59
254 253 252 218
1 9 10 2
13 5 29 21
6 14 22 5
60 5 51 44
1 9 10 13
198 214 30 206
211 195 208 216
21 5 51 35
5 21 13 17
206 8 45 219
9 1 8 25
6 42 134 14
59 43 35 37
4 9 1 12
227 36 235 44
41 57 13 5
14 47 54 39
9 1 25 17
13 5 14 250
38 54 37 45
9 243 240 215
54 53 62 38
1 4 239 54
5 13 21 29
54 48 56 211
215 199 207 223
44 61 62 60
32 48 40 56
196 212 204 220
54 37 53 45
7 15 4 23
20 19 28 27
36 134 230 58
24 16 8 17
5 13 59 144
106 35 48 51
2 5 18 1
162 167 129 183
37 52 63 53
38 204 54 196
200 211 189 192
25 9 17 1
5 21 13 6
129 167 237 55
4 48 32 20
236 34 228 33
22 30 14 21
18 26 2 10
195 228 244 192
208 180 211 219
6 4 240 14
239 56 48 43
136 236 200 171
5 13 12 29
8 24 14 6
239 200 203 255
12 4 28 40
14 13 30 29
9 17 1 25
14 6 10 30
9 1 17 25
33 13 9 215
2 10 18 14
4 45 227 199
220 232 47 204
52 60 36 53
8 24 4 199
13 204 176 5
35 32 54 231
56 40 1 45
13 5 21 29
4 56 34 40
46 1 9 45
204 220 207 6
183 8 180 244
237 269 253 270
5 13 17 1
8 24 6 203
6 22 14 5
6 18 26 2
224 240 136 152
36 44 53 61
49 57 39 47
212 209 215 200
49 38 54 57
50 58 53 37
57 49 62 54
1 2 8 58
51 35 59 50
26 18 2 10
5 13 25 9
27 24 55 63
34 50 55 49
58 50 40 57
53 250 61 55
9 232 235 1
4 5 20 247
55 39 57 49
59 56 43 51
1 212 9 24
52 60 44 8
37 49 53 57
50 49 58 34
40 17 56 43
49 57 56 9
32 8 40 235
195 131 203 147
244 152 228 35
25 17 9 1
27 24 8 11
53 37 24 61
8 46 16 54
9 1 49 57
2 10 18 40
5 17 9 25
5 13 36 44
23 31 128 10
2 37 45 18
48 6 14 56
4 20 12 28
15 7 31 23
53 43 61 35
10 2 204 196
248 240 13 5
53 44 36 61
8 16 12 24
14 49 57 30
207 57 54 40
9 1 17 5
36 60 52 44
206 198 222 214
6 14 10 2
13 14 6 5
37 38 45 54
214 198 242 230
176 248 213 221
1 9 25 36
239 231 135 139
208 200 192 170
255 247 46 239
6 9 5 10
53 7 6 23
47 39 63 62
12 43 4 28
195 42 34 46
196 212 182 200
249 241 157 141
35 43 18 59
226 206 150 242
13 5 9 29
5 13 57 41
56 40 54 58
9 13 1 10
13 5 4 20
35 59 32 51
28 235 4 232
248 220 240 176
1 9 17 56
9 10 1 13
13 14 5 29
172 236 164 199
5 13 1 9
14 56 6 40
13 1 2 10
13 4 7 14
45 56 9 53
15 27 7 31
222 214 198 242
40 220 56 204
198 242 206 214
54 37 53 62
9 1 5 53
249 233 225 43
54 47 222 250
220 53 240 204
226 225 242 234
4 12 1 20
197 241 213 249
198 226 234 250
1 9 13 5
28 20 4 12
37 53 45 63
53 1 17 37
53 45 54 61
38 46 219 203
15 222 7 31
15 7 31 59
11 3 7 19
15 7 10 2
7 15 23 31
13 5 29 21
15 7 51 35
7 15 23 32
17 37 1 25
42 41 11 34
15 7 12 31
221 241 205 225
1 12 4 2
9 25 17 1
213 221 205 197
43 35 40 32
31 22 23 18
34 33 59 233
46 62 45 54
23 31 7 15
2 28 18 45
31 15 23 144
204 220 148 214
206 222 214 33
16 24 8 29
5 13 6 29
226 242 198 234
40 56 32 48
52 60 36 44
214 230 219 211
1 9 203 4
8 4 12 243
239 203 231 195
192 200 236 228
2 10 18 1
13 5 29 21
9 1 49 17
8 60 52 206
13 1 5 9
2 10 1 9
8 5 13 227
195 211 203 219
192 200 228 208
232 235 224 2
192 200 228 236
37 45 235 227
8 24 12 16
1 5 9 13
2 10 43 40
13 5 9 1
1 9 37 45
8 60 52 44
6 14 1 9
60 192 44 244
235 227 1 9
8 231 192 195
1 13 5 17
46 38 200 203
13 5 29 1
37 59 45 51
8 5 13 44
1 9 2 10
192 236 58 208
168 232 15 7
46 62 60 38
13 251 5 243
2 10 239 236
5 13 6 21
37 45 231 195
8 24 16 5
14 1 2 18
54 38 44 52
1 9 17 5
60 44 36 52
5 13 57 33
2 10 14 6
34 42 56 58
231 239 195 203
8 192 244 216
240 227 243 224
192 58 57 50
198 205 206 176
192 231 247 215
29 9 12 25
175 49 172 50
235 153 132 137
251 248 235 172
28 20 12 42
33 41 49 57
42 23 41 31
28 20 12 16
40 30 43 56
44 36 47 52
31 39 23 47
31 15 23 7
31 15 23 7
23 15 31 7
5 13 1 9
13 6 14 5
36 231 239 62
1 9 17 207
240 13 5 44
40 44 56 34
1 13 9 17
13 5 9 29
56 37 48 53
1 9 17 25
56 50 231 57
9 13 1 5
13 5 57 14
207 38 199 1
5 13 1 29
6 36 14 44
10 243 227 9
16 5 8 24
14 6 22 30
225 249 233 14
20 53 23 54
38 161 169 211
31 15 23 27
19 3 11 27
27 19 11 3
63 3 47 11
39 55 47 63
225 18 226 222
226 225 231 195
51 192 212 167
51 59 43 206
163 179 160 197
193 201 179 209
15 54 12 31
222 158 20 214
7 12 15 8
170 41 42 34
150 234 242 250
37 45 53 52
55 63 41 199
20 242 44 197
4 40 7 12
55 41 52 63
10 2 150 242
45 61 37 53
63 55 60 52
242 133 226 149
58 50 213 221
203 195 228 236
6 2 10 22
17 34 18 42
54 46 23 40
18 2 242 226
2 18 26 10
197 31 42 213
15 12 7 40
15 7 45 22
226 28 242 205
23 12 4 7
7 46 15 37
206 234 226 222
221 213 205 6
7 15 23 41
2 10 18 6
5 21 13 25
45 37 23 31
8 224 144 128
37 45 227 46
8 17 11 24
227 235 211 251
228 192 244 252
224 184 6 248
128 136 131 239
226 234 162 225
34 50 58 49
29 21 52 60
25 9 17 1
60 44 36 52
37 53 45 61
41 33 46 57
18 2 26 10
21 29 50 22
45 12 37 4
251 248 235 227
37 164 180 236
196 160 199 207
251 243 227 240
195 239 203 231
26 10 18 25
29 21 13 17
25 17 9 33
60 24 52 36
53 37 45 61
41 33 57 7
2 10 18 26
21 5 29 13
45 37 61 53
248 251 8 227
37 45 61 53
207 196 220 204
251 248 243 227
206 183 164 180
26 62 53 54
6 14 22 30
53 60 37 61
7 6 14 2
221 250 242 249
22 30 58 213
47 51 35 59
3 11 19 27
55 63 47 39
17 44 25 24
2 10 14 1
192 228 200 236
14 6 13 30
43 59 35 51
8 13 5 177
18 10 2 26
252 244 180 25
14 6 30 22
57 35 29 43
16 24 223 215
7 247 255 147
45 53 61 35
35 43 49 57
197 225 161 211
26 18 10 2
4 12 15 7
35 43 10 2
225 233 234 161
26 10 18 2
244 2 136 228
32 35 48 8
1 9 5 17
13 5 29 21
44 47 63 36
56 40 48 46
215 223 199 243
11 3 6 14
199 215 207 223
9 1 17 2
54 62 40 32
9 1 38 25
13 225 198 214
226 225 241 242
1 9 17 5
15 31 7 59
4 12 20 7
1 9 25 17
35 59 51 43
9 10 1 2
5 13 240 212
236 200 239 228
15 7 31 1
35 43 13 5
16 4 12 9
5 21 15 7
225 14 241 226
35 43 7 15
233 225 249 241
47 4 44 12
7 15 25 4
36 39 55 52
197 205 233 221
16 199 24 227
214 198 242 226
232 215 212 199
226 225 242 27
214 198 222 15
27 42 11 19
215 229 223 25
4 12 28 20
235 251 241 200
35 32 7 207
1 5 9 17
35 32 235 43
30 14 214 198
55 42 14 34
214 47 198 197
45 52 61 248
47 44 198 63
212 196 240 215
26 10 27 18
13 220 212 14
9 222 24 25
28 16 24 240
206 205 222 221
6 14 12 8
40 56 177 4
4 12 20 42
32 35 43 7
9 17 25 10
220 215 232 204
2 1 53 10
204 196 207 212
32 199 215 207
12 4 28 20
48 56 32 40
53 45 54 37
2 7 10 15
14 6 10 2
14 13 6 44
9 1 4 32
8 4 12 1
43 51 49 35
198 206 222 214
14 10 9 2
63 47 39 55
198 214 206 222
14 6 10 30
34 13 50 5
2 1 204 196
8 5 4 13
57 49 55 63
228 200 236 192
13 14 5 6
47 39 53 55
8 5 1 16
14 30 6 10
54 62 34 60
1 9 2 10
8 4 24 20
5 211 195 45
192 228 10 195
14 13 6 5
231 239 38 54
1 9 8 4
58 12 50 49
5 13 60 44
1 9 17 25
60 44 52 50
1 5 9 13
208 192 200 236
18 7 23 31
46 38 7 35
13 29 5 17
2 18 1 58
8 33 5 57
10 2 1 6
59 43 56 33
1 9 13 5
200 8 192 216
13 5 251 1
228 236 231 239
243 251 227 199
231 239 195 203
226 192 234 198
1 9 2 17
60 44 52 57
1 9 13 29
38 54 52 8
5 1 8 13
236 200 228 239
13 5 14 54
203 195 239 231
198 234 206 8
147 131 239 231
23 31 30 6
32 40 56 48
31 23 28 15
233 249 26 25
228 236 244 231
1 17 199 9
40 56 39 8
4 20 12 28
28 12 20 4
58 36 50 44
231 228 45 236
4 9 1 12
13 5 59 33
35 56 32 40
1 9 25 17
214 197 225 213
203 195 200 219
249 160 47 233
39 47 44 40
36 211 56 195
20 17 1 9
57 49 21 41
10 26 2 23
54 62 244 40
56 48 58 50
9 1 41 33
247 231 244 252
40 48 56 32
50 148 212 58
208 219 211 200
4 20 223 169
15 31 59 7
48 56 32 12
51 59 35 34
54 62 38 46
25 26 10 17
36 44 52 29
32 40 48 56
29 21 9 5
34 42 33 41
9 1 17 25
13 21 5 17
7 2 10 35
25 17 211 18
136 40 236 43
45 46 36 242
213 214 221 205
216 172 200 228
22 6 26 18
46 32 40 45
61 7 45 43
6 27 22 14
22 6 30 14
196 199 212 215
8 12 24 29
250 234 154 249
199 197 225 213
163 179 199 215
33 55 34 39
213 232 214 197
246 4 20 225
7 23 15 31
56 8 48 24
20 34 33 23
40 56 43 49
241 225 206 62
34 42 41 197
12 2 15 1
175 201 167 217
205 221 206 234
216 252 200 205
135 235 232 132
39 142 55 203
12 8 233 24
32 35 51 48
22 25 9 21
9 12 17 4
45 58 57 41
5 8 16 13
2 10 9 1
57 41 5 8
211 195 136 200
44 5 36 52
19 3 27 11
39 3 11 36
46 49 33 34
44 153 50 137
1 17 185 9
157 141 149 133
198 242 250 142
45 46 37 53
241 34 249 33
213 221 249 1
142 214 245 141
6 34 50 58
20 23 28 236
16 239 255 252
46 45 62 37
198 214 206 234
239 131 28 45
52 53 60 54
45 51 4 46
228 247 231 128
49 57 231 41
58 42 34 41
8 24 16 1
37 12 53 28
13 17 5 41
243 24 6 211
37 31 205 192
20 28 4 12
29 44 21 52
14 2 3 18
23 31 7 15
13 5 29 63
58 35 43 42
40 240 32 133
14 30 6 10
59 7 23 43
142 230 13 238
249 32 241 250
1 18 25 26
37 53 45 61
1 246 173 230
57 58 40 49
215 36 54 60
2 10 3 19
15 228 244 236
14 13 6 5
47 63 44 56
161 219 177 211
10 18 2 26
15 244 169 252
14 30 6 22
57 21 58 5
16 38 54 24
15 7 31 12
221 222 205 241
36 31 39 28
35 43 189 173
14 23 201 194
226 225 205 233
214 198 15 31
196 215 13 243
2 18 10 26
15 31 7 35
2 10 18 1
218 192 166 182
10 2 6 49
29 5 13 24
203 219 195 167
2 10 206 43
14 30 215 223
203 45 219 200
8 4 16 24
12 18 4 26
25 17 254 237
49 43 57 47
52 254 60 243
47 36 44 39
52 8 12 44
234 250 150 134
24 17 29 8
14 13 30 6
32 40 231 175
194 210 209 193
18 2 14 6
42 200 58 34
45 235 46 227
239 195 255 211
1 13 51 202
132 204 220 239
13 5 14 29
1 9 17 25
8 52 16 36
5 29 13 21
2 10 1 18
14 6 13 40
61 45 53 216
4 20 12 28
6 195 203 209
13 5 29 216
59 52 51 43
5 1 17 33
63 47 55 39
2 10 246 230
1 212 196 223
96 164 57 112
4 60 13 29
203 219 200 195
41 38 54 236
46 62 63 45
16 24 25 17
49 34 33 7
8 12 13 5
13 14 5 6
40 54 38 56
5 251 13 235
9 17 25 1
238 230 45 254
14 6 22 30
4 12 56 20
4 12 20 15
35 232 7 235
14 30 10 6
44 47 59 42
12 4 9 28
32 12 4 236
35 43 51 57
251 223 243 207
13 5 204 1
25 17 1 9
35 4 12 53
219 203 169 5
25 13 9 5
4 20 28 12
140 148 151 156
17 25 57 1
59 35 43 56
215 223 207 199
25 17 5 9
15 251 7 4
240 248 148 156
10 2 18 36
51 9 10 59
54 62 38 46
165 189 173 207
202 194 218 210
241 249 233 207
170 242 178 206
228 154 238 35
225 233 228 8
59 43 51 35
51 59 43 35
3 19 11 27
11 3 19 27
55 63 39 47
55 39 47 63
63 55 36 60
31 23 11 27
31 23 15 7
31 28 23 15
7 10 3 4
11 3 130 246
249 233 153 137
241 249 225 233
149 157 141 241
242 150 9 149
181 250 189 190
185 242 129 40
35 59 51 43
34 50 39 56
23 31 7 15
7 31 15 23
51 12 59 4
51 59 43 48
62 54 32 48
62 46 54 47
44 60 215 15
174 208 192 190
43 59 7 51
189 181 173 165
190 182 189 166
192 200 208 195
153 199 189 245