# MaxFreqExtractor features
# Channels: 2
# Frame size: 1024
# Hop size: 512
# Sample rate: 48000
# Frequencies per frame: 4
1 3 4 2
1 3 4 2
499 496 24 27
205 204 196 197
19 3 26 10
18 133 149 2
214 198 206 222
60 6 63 52
52 60 12 36
54 250 36 38
2 38 52 10
207 226 234 215
36 44 195 203
9 1 10 2
1 9 17 4
14 13 197 6
12 4 28 20
228 7 15 51
14 13 6 5
35 2 10 43
59 56 37 43
195 231 192 239
9 1 4 207
15 7 11 13
9 1 17 25
15 31 23 7
14 13 6 5
206 8 5 4
14 56 6 40
4 52 48 32
38 207 236 54
36 44 195 203
9 1 13 2
1 9 4 17
13 14 5 197
1 9 4 17
15 13 7 5
13 5 29 21
35 43 32 51
197 198 213 214
19 27 3 11
15 7 12 23
31 206 15 23
34 42 12 28
4 233 249 234
30 22 199 192
23 7 15 31
2 10 18 1
206 242 226 198
6 14 22 30
12 4 15 40
192 208 200 195
23 31 198 54
10 2 35 43
226 234 242 206
14 6 30 22
12 4 8 32
225 226 234 205
2 18 10 26
7 15 43 59
7 15 35 51
59 43 35 7
7 15 23 46
34 42 50 49
198 226 206 234
13 5 29 21
5 13 6 29
2 10 1 9
35 7 43 15
7 23 15 31
4 20 12 23
197 225 241 205
9 13 198 1
43 35 54 62
9 46 38 1
54 15 62 7
10 38 2 46
226 198 234 225
60 52 36 44
228 244 192 236
13 5 6 14
206 198 234 204
59 35 43 51
1 5 9 13
34 42 50 6
7 2 4 15
38 46 207 199
35 7 43 51
5 13 29 21
7 15 33 41
6 34 14 33
46 38 45 35
52 60 195 14
52 200 192 60
236 228 56 40
4 12 7 15
35 46 38 1
234 226 206 2
4 7 32 35
22 15 6 222
7 23 20 4
213 221 56 48
197 249 241 225
15 7 12 31
59 43 35 51
33 59 49 41
35 32 43 51
29 5 13 21
4 12 236 20
204 212 220 196
35 43 51 46
14 6 13 30
10 2 26 35
242 225 226 250
4 12 20 28
7 15 4 12
232 224 204 196
7 23 15 31
5 13 21 29
198 206 226 234
37 211 43 45
7 15 35 32
214 222 198 206
7 23 15 31
12 4 7 15
206 214 198 222
206 198 234 197
198 206 222 242
1 9 2 17
6 14 2 18
4 32 7 12
241 249 233 225
14 13 53 10
35 51 43 10
14 198 226 242
14 6 22 30
15 249 241 7
13 5 29 21
7 32 59 15
31 47 22 39
15 53 128 144
236 233 228 204
4 12 20 28
5 13 29 21
15 9 7 50
19 16 3 34
20 4 12 28
29 30 13 14
252 236 244 228
41 42 33 5
14 30 22 6
43 59 51 35
241 249 225 233
199 196 215 212
7 15 43 23
5 13 29 21
21 5 29 33
200 219 216 203
13 5 29 9
5 13 1 29
1 17 9 57
16 12 24 176
214 196 142 224
62 54 47 32
4 12 52 60
140 204 232 224
198 214 206 226
10 9 1 2
12 4 1 9
14 30 6 22
17 4 20 28
15 4 7 12
224 212 240 251
35 51 2 7
14 13 29 30
23 31 59 15
61 63 14 243
244 252 236 228
227 242 207 243
61 62 50 49
42 58 34 41
207 204 223 185
30 29 21 26
13 5 29 4
1 9 5 57
13 5 1 29
9 17 25 1
242 241 225 249
196 212 199 204
59 43 56 40
34 42 49 33
207 223 47 55
219 203 211 37
13 5 9 29
9 1 25 17
1 9 13 17
196 240 204 212
15 7 12 31
13 5 29 4
35 56 40 32
13 5 29 60
35 236 207 7
203 36 219 44
9 1 4 56
1 231 9 45
1 9 17 25
13 5 9 1
5 13 1 9
14 6 30 22
14 6 30 222
9 1 5 13
4 12 20 28
5 13 29 33
56 50 58 4
13 5 1 9
59 57 202 61
1 9 17 4
14 13 6 57
9 1 4 32
14 6 13 5
9 1 17 207
13 5 29 14
40 56 9 32
43 59 35 51
1 9 32 4
13 241 249 5
10 15 26 7
4 12 1 207
53 61 54 13
60 44 14 6
5 9 13 1
54 53 62 61
13 1 9 5
231 4 54 247
9 1 17 25
56 195 14 203
9 1 5 13
56 40 12 4
13 1 5 9
56 14 48 6
1 9 13 5
56 239 50 231
13 9 1 5
56 54 32 40
5 13 9 25
4 56 12 231
13 5 240 248
9 1 56 4
13 5 1 29
4 56 12 40
13 5 240 196
56 40 9 4
13 5 29 9
4 56 12 40
13 5 204 196
4 56 9 48
13 5 29 9
4 56 12 40
13 5 196 204
4 56 12 40
13 5 14 29
9 4 1 12
14 6 13 5
207 199 215 1
14 6 13 30
9 1 17 4
56 4 12 40
13 5 9 1
4 56 12 32
14 6 13 5
1 9 207 215
14 6 47 39
1 9 13 17
13 14 5 250
48 9 32 1
13 5 9 1
36 39 47 44
48 56 32 60
198 226 14 63
13 5 21 29
4 7 12 15
244 228 11 208
13 225 14 6
224 232 212 204
4 12 20 28
56 48 32 40
13 29 21 5
224 196 232 240
215 223 1 2
4 12 1 28
14 6 30 13
18 10 2 26
227 243 135 151
10 33 1 41
9 1 17 25
235 227 199 207
1 4 9 12
6 41 42 12
14 10 30 6
232 224 248 204
10 2 41 1
4 9 1 12
4 12 14 32
13 250 203 242
3 212 11 10
1 13 9 5
4 32 40 12
235 227 207 199
198 234 226 242
14 6 30 22
24 8 16 12
17 5 255 1
15 7 23 31
7 15 54 23
11 233 225 249
234 206 226 205
206 31 226 15
7 15 35 51
15 7 35 48
13 197 1 5
197 225 213 205
7 15 23 10
7 15 31 23
35 32 48 51
225 44 36 47
226 197 198 225
1 17 9 54
1 9 12 17
1 5 9 206
234 206 250 198
15 7 23 31
15 7 12 11
34 50 206 214
206 234 198 226
13 5 29 57
7 35 15 43
13 5 9 1
1 14 13 6
45 37 239 231
1 9 2 10
53 37 59 45
44 36 60 47
54 60 44 38
10 46 236 2
13 29 5 17
226 234 39 198
7 15 23 31
7 3 11 15
7 15 226 242
32 4 12 40
7 15 35 23
7 15 23 31
15 7 31 23
225 233 241 249
9 199 223 1
14 23 10 6
7 15 35 43
7 15 35 32
198 226 206 234
226 36 47 234
4 12 20 7
54 10 2 53
199 227 46 235
206 198 205 197
59 51 43 35
15 7 23 31
242 250 249 241
204 196 232 212
4 9 1 12
14 6 30 250
13 5 198 14
32 40 48 56
35 43 57 51
9 1 5 15
13 5 14 6
35 43 51 15
9 1 17 25
14 10 2 6
59 35 51 43
1 32 9 35
198 206 226 234
203 195 200 192
7 4 15 12
2 10 7 3
242 214 198 206
242 14 226 198
7 15 35 32
9 1 36 5
14 6 13 5
1 5 9 13
32 40 35 56
18 26 30 14
47 39 44 63
13 59 33 35
4 7 12 53
227 235 199 38
225 233 197 226
33 41 5 49
7 15 35 43
7 15 35 4
197 225 213 241
13 14 30 6
14 23 7 6
7 15 23 31
7 15 35 43
233 205 197 225
23 31 7 15
7 15 23 31
7 15 35 13
15 7 35 43
13 5 14 9
226 234 242 178
52 60 55 53
7 23 33 15
7 15 23 31
23 7 31 15
4 56 40 1
10 9 26 2
46 53 54 62
12 28 4 20
32 4 40 48
4 239 12 231
240 225 243 248
5 13 21 39
40 4 28 20
207 135 223 227
177 242 250 249
12 4 28 20
13 5 14 29
32 34 50 42
207 143 223 235
9 12 1 4
47 14 63 32
6 14 13 5
196 212 220 240
9 228 215 207
4 12 1 9
14 6 30 22
198 195 214 203
196 204 220 212
41 33 55 63
4 48 32 56
30 14 22 6
195 239 192 211
10 198 224 212
13 5 14 6
46 54 48 35
39 47 55 54
37 53 45 61
192 195 54 208
7 23 15 31
8 24 12 16
2 10 18 26
242 226 134 150
44 60 36 47
48 56 32 54
50 58 34 44
4 12 20 16
13 6 14 5
234 206 226 198
1 5 13 17
7 15 53 37
9 207 1 223
4 12 205 32
56 59 40 48
10 2 14 7
13 5 29 9
14 6 13 30
8 239 3 7
1 9 56 32
13 5 15 7
12 9 4 1
33 240 224 41
35 7 15 43
231 247 239 41
43 59 35 51
250 242 226 205
1 9 12 234
39 63 47 38
10 14 30 37
13 29 9 1
196 9 199 1
56 48 46 138
9 4 1 13
34 7 33 49
54 57 210 38
52 36 55 60
228 48 192 244
1 5 2 9
20 4 7 28
9 1 25 17
13 1 5 14
50 34 58 42
17 25 9 13
228 54 13 199
60 52 44 63
62 32 48 56
232 248 240 220
4 12 7 15
212 244 220 196
5 13 21 1
1 5 9 21
1 9 175 23
58 43 50 40
38 46 36 231
6 14 22 30
42 60 34 52
240 248 243 148
232 5 248 240
9 1 25 17
5 13 21 29
9 1 25 17
195 203 139 239
219 37 208 203
200 203 216 219
255 160 219 208
14 6 13 5
39 61 47 45
1 232 234 196
1 13 5 9
2 10 206 18
242 206 214 226
198 214 206 226
35 43 2 10
35 206 7 15
234 242 250 206
234 242 226 198
206 214 222 35
242 206 142 222
242 198 214 226
206 242 7 222
7 15 204 35
7 15 204 3
7 15 23 3
7 15 3 11
7 15 23 31
15 7 31 12
7 15 12 31
7 15 4 23
7 4 15 204
203 7 195 15
195 203 239 175
239 195 203 231
195 239 231 203
231 207 223 239
199 215 207 235
9 1 207 235
1 9 13 2
9 1 59 45
1 9 4 2
42 34 14 136
35 51 32 43
44 36 60 61
51 35 48 32
231 228 239 236
222 9 1 45
56 34 50 37
15 7 46 249
1 9 17 25
7 15 23 31
5 13 1 21
23 31 198 206
54 63 47 39
12 52 4 60
56 40 32 48
7 15 23 31
1 9 2 10
37 239 231 45
9 1 10 2
1 4 9 17
197 14 205 225
4 20 13 12
43 59 15 57
13 14 29 6
198 226 234 242
50 58 14 231
15 7 54 46
1 9 17 25
1 15 9 226
9 1 10 2
1 9 17 4
14 6 13 5
9 10 1 24
21 6 5 22
35 32 14 31
53 48 32 61
36 52 60 44
42 48 58 6
50 229 141 34
231 255 164 247
204 201 220 207
205 221 49 173
4 20 153 7
174 36 44 39
173 198 165 189
145 230 130 100
8 11 57 16
225 134 234 250
28 12 16 11
62 15 46 61
17 209 1 193
219 203 252 167
199 196 221 222
229 245 230 164
55 39 52 36
235 36 251 30
60 52 36 63
38 36 52 60
52 29 30 36
40 43 56 9
53 4 37 61
105 101 121 13
97 113 109 100
132 148 117 101
49 52 33 156
45 37 1 19
16 3 19 155
50 250 2 35
50 34 51 236
81 82 55 39
135 249 170 186
170 169 186 238
170 169 186 99
170 169 186 185
170 169 42 58
162 222 161 170
34 50 51 33
50 34 51 48
48 32 113 114
233 34 249 250
234 250 63 233
152 252 236 237
200 216 175 15
182 166 190 230
227 84 243 251
68 94 37 84
245 229 230 246
26 25 16 35
26 243 194 16
243 16 240 248
198 197 124 248
254 253 198 197
118 104 251 15
118 102 245 246
25 202 210 26
218 202 184 33
237 218 238 188
55 238 52 90
63 210 60 55
52 36 55 60
52 36 218 60
45 210 194 61
57 244 228 41
134 249 133 206
58 79 16 42
18 17 197 16
104 120 224 24
26 17 25 81
227 243 170 240
120 104 41 107
41 57 42 189
33 34 49 227
233 243 249 240
210 152 238 98
109 190 125 218
216 200 219 203
216 200 166 183
216 120 67 164
149 158 115 236
149 158 150 214
115 149 150 99
115 149 150 158
214 213 197 149
214 198 165 169
123 120 107 122
115 99 120 87
169 21 163 109
250 249 243 6
161 162 178 97
178 224 162 227
42 41 58 57
42 58 226 40
5 40 225 13
16 189 19 3
41 55 25 39
61 10 45 9
2 25 1 27
205 249 23 250
9 1 57 33
2 18 1 17
10 27 35 26
24 253 229 237
77 221 93 222
78 70 94 117
9 25 241 16
167 197 183 213
242 241 226 41
226 242 75 67
79 32 54 48
241 84 117 79
11 130 187 242
255 252 239 242
254 195 238 41
213 197 165 79
10 9 26 25
174 182 190 213
240 77 134 224
15 221 87 12
249 59 43 103
196 212 199 190
192 33 34 208
205 249 221 151
1 238 243 240
192 208 3 65
61 208 147 65
198 251 214 133
35 49 42 41
3 11 27 19
44 47 55 60
31 15 23 7
9 439 51 184
199 2 39 7
5 13 248 48
5 6 13 14
54 1 38 153
5 12 28 62
43 121 32 40
253 23 7 9
246 230 19 245
76 92 248 77
240 69 158 142
34 33 50 49
53 5 220 212
254 206 238 170
62 54 47 32
16 60 24 12
236 136 239 177
195 219 211 203
1 9 4 17
1 9 17 47
6 13 14 5
1 9 17 4
225 250 249 226
12 4 212 8
54 49 50 32
217 201 231 16
207 204 223 220
19 16 3 45
38 54 179 47
10 58 9 26
156 140 143 159
242 248 117 232
179 206 68 255
50 13 5 29
187 45 55 171
20 5 253 4
6 221 214 22
13 63 5 240
54 53 61 44
1 9 13 228
5 62 21 193
1 196 206 4
2 10 18 232
57 9 1 58
132 61 148 70
32 151 135 35
254 196 212 238
50 16 219 32
212 121 196 242
121 105 113 122
13 14 29 30
27 227 11 224
50 49 34 9
133 212 106 226
199 215 196 212
9 10 25 13
212 196 222 220
9 16 24 199
62 61 54 48
9 1 32 140
14 13 30 29
13 5 9 56
14 6 30 22
13 9 53 1
231 239 6 14
13 45 5 171
6 14 48 22
207 1 212 9
203 219 200 14
9 1 25 17
48 42 49 56
1 17 9 25
255 44 37 56
1 13 9 17
56 14 40 30
9 1 17 13
162 231 178 4
9 13 1 17
50 14 34 30
41 33 232 235
50 58 57 49
196 176 204 212
61 45 46 62
1 17 9 25
255 239 236 252
5 13 1 9
14 30 6 22
13 5 9 1
4 32 12 48
5 13 6 14
207 199 235 215
14 13 5 6
207 227 224 204
47 30 63 14
13 14 6 29
9 219 10 234
240 224 248 132
200 9 25 216
29 21 13 5
38 37 45 54
1 9 13 5
228 244 54 13
56 58 40 1
204 207 196 223
199 196 207 215
16 8 24 1
7 15 4 12
198 36 7 23
13 5 29 9
197 205 198 221
51 56 59 35
32 40 48 204
207 37 45 235
151 243 143 240
33 60 203 52
214 198 250 234
58 30 250 249
50 34 60 36
61 53 34 20
171 163 179 22
30 22 14 16
58 49 248 50
61 53 193 194
61 45 48 53
163 171 179 209
8 24 16 9
4 24 20 8
230 158 53 246
53 44 134 133
205 171 163 16
9 24 1 8
20 235 4 27
244 155 247 152
11 27 3 24
27 9 19 1
54 214 51 31
53 52 54 36
27 11 157 145
62 59 14 35
7 53 15 12
231 236 239 136
247 208 162 192
14 26 10 13
7 23 15 12
4 53 1 7
25 9 17 8
1 9 233 25
200 219 216 7
52 36 44 7
219 222 206 205
52 234 250 54
198 46 45 7
29 13 17 57
5 21 15 33
9 13 25 29
9 13 10 25
10 26 6 22
1 53 17 192
17 25 9 1
37 53 55 248
46 62 38 54
233 249 32 35
45 12 206 5
9 25 13 1
235 251 232 204
13 5 34 29
241 225 242 249
52 36 55 45
9 10 1 26
4 44 12 220
30 14 22 18
22 30 6 14
174 34 30 3
28 20 25 17
47 39 63 55
157 158 39 55
219 50 58 229
18 26 44 2
47 44 36 39
47 39 22 186
22 30 47 39
39 45 224 240
249 34 112 46
15 12 10 9
162 161 178 177
12 91 15 183
407 98 404 233
14 2 427 424
345 332 62 335
233 184 187 140
408 392 411 387
7 51 48 371
37 149 2 179
221 222 205 183
179 221 163 176
17 1 8 25
25 17 26 9
17 25 9 1
248 251 59 240
25 17 41 33
35 59 43 51
17 25 207 55
49 57 33 233
25 207 17 223
15 140 156 31
207 41 42 199
9 48 20 55
40 12 59 4
28 140 156 20
12 28 31 4
252 236 29 20
7 23 31 61
1 35 119 17
51 59 58 50
49 26 190 50
53 61 20 1
16 24 207 8
27 11 24 58
19 3 14 30
22 21 6 30
42 34 53 58
143 135 140 151
47 63 39 55
53 35 37 51
9 1 25 28
41 54 33 28
1 9 227 235
22 30 6 14
174 50 16 19
140 236 228 203
37 46 38 45
18 43 59 40
45 37 60 46
38 10 41 230
21 25 29 5
25 17 23 7
18 26 10 2
31 221 205 23
29 30 153 235
39 13 5 12
250 12 15 234
55 52 46 39
17 1 18 214
21 30 235 22
242 241 7 192
60 206 53 63
12 28 56 4
9 2 1 10
206 222 142 158
227 224 204 172
12 4 42 55
52 55 36 63
2 18 14 10
17 25 1 9
30 22 32 40
30 22 14 6
16 24 56 8
212 28 56 59
223 215 229 245
22 30 39 47
56 40 32 48
8 16 20 4
59 56 215 28
44 47 229 36
240 134 224 133
22 30 6 14
207 227 235 199
46 45 37 53
234 226 242 250
4 1 9 12
4 9 12 1
38 227 46 54
36 62 46 52
161 55 249 63
7 15 62 61
25 9 26 17
25 17 9 24
26 251 248 243
17 40 25 32
221 26 18 213
40 32 12 56
59 51 31 56
234 250 23 7
13 5 242 250
192 228 35 236
9 1 13 5
14 6 30 22
4 9 32 35
2 10 14 6
39 47 63 55
1 9 62 38
12 4 28 223
13 5 9 1
31 23 15 28
1 9 56 57
5 9 1 13
4 24 8 16
56 13 59 40
219 216 203 200
230 37 214 45
29 13 21 25
25 26 41 17
16 24 8 25
25 9 5 13
17 1 25 9
243 215 251 227
248 240 212 232
211 166 195 219
162 178 167 170
223 220 204 212
22 38 37 30
49 59 21 45
9 56 1 48
215 236 244 228
47 39 44 36
30 29 22 13
9 25 1 17
31 23 15 28
22 30 6 215
249 250 233 225
215 180 223 219
56 40 43 32
215 223 207 199
32 56 48 215
250 22 170 234
25 17 9 1
25 17 9 1
25 17 9 1
5 10 6 2
37 45 216 38
235 227 199 207
57 5 41 13
50 33 58 49
200 41 185 24
5 13 29 18
13 8 9 1
5 13 29 21
9 1 13 17
1 37 2 45
1 9 202 37
208 200 28 192
18 17 25 26
252 152 255 51
117 101 118 102
1 17 18 5
41 57 13 5
15 7 31 43
15 7 12 251
15 233 63 249
15 31 7 12
11 43 42 3
15 7 46 48
15 56 7 43
47 3 153 11
27 19 31 11
28 20 24 16
27 24 168 60
167 204 212 220
7 163 15 235
227 11 27 235
7 15 38 45
15 7 31 23
7 15 23 31
7 15 23 31
31 23 27 15
242 250 23 142
34 196 204 140
212 231 239 214
220 167 212 55
31 15 199 215
227 163 205 251
13 5 251 235
15 35 43 51
15 7 23 31
15 7 23 31
27 23 11 31
23 15 31 7
195 208 192 38
203 195 239 231
10 2 26 231
12 4 7 15
7 23 15 31
7 4 35 15
7 4 15 12
10 9 2 1
4 204 1 12
15 7 35 59
249 57 250 15
35 43 59 54
52 36 56 55
47 197 206 205
4 12 32 20
7 15 56 35
5 13 9 1
9 234 25 1
6 14 13 2
4 12 204 206
44 56 39 36
60 62 52 12
236 228 207 32
36 44 226 52
9 12 1 4
1 9 17 25
241 225 197 249
9 1 4 17
15 7 31 12
13 5 248 232
54 244 53 49
21 29 26 57
200 7 23 10
250 225 226 234
245 157 253 246
255 56 59 196
51 35 48 43
168 198 214 48
27 31 15 48
27 11 19 24
142 250 141 249
185 32 48 53
148 141 232 212
215 212 196 199
1 4 198 20
156 140 45 46
219 178 162 186
11 53 3 4
39 47 250 249
249 250 234 233
187 251 235 171
18 2 17 1
59 18 5 51
7 254 58 15
197 213 225 221
5 13 200 216
13 5 29 21
47 50 32 58
18 214 222 2
5 13 21 29
29 13 5 21
53 25 17 61
33 34 42 41
21 5 29 28
235 232 227 32
39 47 36 55
5 13 21 29
1 17 9 25
33 34 42 46
42 13 41 198
28 20 21 12
33 49 32 41
213 244 221 216
199 171 224 196
1 17 9 25
18 255 31 2
42 35 34 41
29 16 5 21
9 25 21 28
40 33 32 211
252 208 211 244
41 235 5 224
9 5 21 1
33 219 203 49
41 34 33 42
5 13 21 29
29 13 9 1
32 17 25 41
247 244 18 252
13 29 5 21
1 17 21 29
41 42 43 33
5 13 42 41
13 5 29 21
17 9 1 25
219 203 255 32
36 44 52 39
5 13 29 21
21 29 9 1
30 17 219 211
33 41 34 42
13 29 5 21
1 17 9 25
255 252 244 247
5 13 36 44
9 218 21 1
1 17 9 25
52 55 36 39
13 56 5 44
9 1 12 21
175 188 191 172
5 13 21 29
17 9 25 1
29 1 17 25
42 41 247 155
53 62 61 54
34 5 208 13
28 20 12 29
29 21 32 1
219 216 200 32
5 13 52 18
9 224 168 1
30 29 1 2
42 41 58 52
208 216 211 189
29 13 40 221
50 143 207 244
167 164 213 197
31 168 210 171
214 2 18 30
31 253 237 28
208 50 173 242
20 28 23 31
250 249 234 233
40 56 54 46
197 241 177 244
198 214 178 242
152 250 47 136
221 205 5 19
192 195 208 211
192 208 247 231
254 241 244 200
29 13 42 58
18 34 42 2
249 250 233 225
199 220 196 204
15 7 59 31
33 49 41 57
254 49 33 57
244 247 228 231
13 9 5 20
13 5 29 59
40 32 9 31
246 229 198 214
232 250 214 206
62 54 39 46
42 52 11 60
206 222 198 224
255 239 30 219
32 48 41 35
12 4 28 20
14 6 17 1
18 17 10 2
249 233 244 241
232 248 224 240
7 15 23 51
6 14 58 5
225 233 199 241
4 12 28 20
250 234 242 21
197 37 27 8
53 20 214 4
17 61 59 62
56 40 48 43
231 239 29 203
131 242 15 243
33 151 9 233
29 21 13 30
254 47 32 38
243 227 173 224
5 28 20 21
23 7 192 31
212 196 240 21
251 159 135 223
239 231 1 48
223 207 204 220
1 9 25 17
60 44 36 52
224 32 232 204
31 15 7 198
5 6 2 13
10 240 9 2
195 211 231 247
235 204 232 207
35 51 50 59
9 25 1 46
231 255 247 203
2 10 1 9
30 22 196 204
17 1 9 25
5 13 1 9
6 13 14 5
36 241 50 225
49 57 32 6
29 17 21 18
47 230 220 39
247 239 255 244
227 235 207 199
204 220 250 234
231 239 32 1
204 224 196 220
231 228 236 44
10 9 26 25
9 1 219 12
215 199 223 207
47 30 14 56
14 22 6 30
3 11 19 27
9 25 1 10
28 54 215 56
44 47 36 39
196 232 204 140
21 29 5 22
235 232 215 228
247 242 244 241
251 235 227 243
176 196 250 202
9 1 4 12
34 10 42 6
1 9 17 25
41 42 34 57
1 9 4 12
6 14 22 5
1 9 17 45
13 5 9 29
4 12 9 56
13 5 14 6
4 12 223 32
14 6 30 22
9 4 1 17
41 57 13 33
1 17 32 9
13 5 29 53
4 140 32 12
13 29 14 5
227 235 232 243
5 134 21 13
232 235 32 204
14 30 21 6
227 235 207 243
44 47 14 202
227 207 199 235
250 226 242 234
9 1 10 2
12 250 234 186
9 1 13 17
12 4 56 48
1 13 5 9
4 12 56 48
5 13 1 9
32 48 56 40
13 29 195 211
224 232 240 204
30 14 37 22
224 204 240 207
255 252 143 215
14 6 10 47
250 234 242 9
135 199 235 207
240 204 220 224
228 244 236 195
224 38 46 227
186 170 250 255
56 42 34 45
4 20 12 9
32 48 56 40
23 171 7 31
15 204 37 220
46 206 170 222
227 213 243 204
216 200 235 221
226 242 39 225
13 14 30 29
232 224 243 40
200 227 219 203
4 20 12 28
14 30 56 40
51 10 35 26
240 224 248 243
5 13 53 1
4 32 48 1
30 14 29 13
242 226 225 203
6 4 14 12
14 6 22 2
248 232 204 240
1 32 9 204
12 28 4 56
14 6 63 47
13 29 17 14
212 196 240 176
9 1 5 13
4 12 32 40
35 7 15 56
18 2 10 26
223 62 54 220
249 206 205 233
63 47 55 39
15 11 230 35
38 54 37 52
32 42 4 35
50 34 59 56
7 15 31 161
13 33 57 49
15 163 197 7
251 187 248 184
29 195 21 192
7 15 23 51
11 3 27 223
14 177 30 13
226 225 242 241
7 15 23 31
20 4 8 40
234 226 242 233
162 178 220 170
250 234 242 255
60 38 225 52
220 204 240 150
207 199 215 236
59 11 43 27
19 26 18 3
22 186 185 222
3 29 21 11
9 1 5 25
215 223 22 183
219 203 195 211
47 39 44 30
30 31 29 23
1 9 17 56
169 6 22 170
211 219 169 208
9 32 25 35
20 25 1 17
16 32 48 46
18 26 2 27
229 253 237 30
45 31 23 37
1 20 17 4
56 59 32 43
44 229 36 47
39 30 22 55
50 34 169 185
56 28 25 40
32 35 44 20
41 57 47 33
45 26 240 10
12 28 9 1
40 32 56 48
35 44 43 36
6 206 222 234
220 223 204 17
12 9 1 5
32 48 35 51
29 21 13 30
33 41 49 196
37 53 28 240
41 33 42 255
56 40 47 48
22 30 6 14
21 29 19 13
9 22 1 30
28 12 31 54
1 9 13 5
56 32 40 6
21 29 5 13
33 34 10 50
227 53 54 25
41 224 44 33
12 4 235 251
5 22 39 63
12 28 191 188
21 5 12 28
255 247 191 6
21 5 235 1
51 34 35 42
28 12 21 5
22 30 21 6
227 12 4 47
22 30 13 21
34 42 28 12
9 1 20 4
244 32 56 40
171 45 21 163
6 22 30 14
53 54 37 12
33 9 1 41
40 56 255 180
171 29 187 217
10 14 30 254
29 30 235 13
9 33 1 41
205 206 222 56
46 146 62 61
50 58 49 34
227 53 235 45
56 48 40 30
39 235 47 227
46 45 38 62
214 197 198 34
28 9 25 5
1 13 9 17
196 212 218 12
42 34 6 235
222 234 30 221
209 210 224 193
13 5 227 145
6 58 32 42
45 235 199 227
240 248 156 132
33 49 41 57
4 12 20 28
32 199 215 48
244 236 239 247
34 37 53 12
5 6 13 14
53 37 32 48
207 227 243 199
211 208 192 162
6 14 47 50
9 25 1 2
40 43 36 39
192 235 195 236
12 4 1 28
42 34 57 33
206 214 198 195
179 224 176 160
41 33 34 42
1 9 4 17
14 30 6 22
195 211 250 231
215 220 184 212
52 34 60 62
51 48 53 35
54 21 50 38
25 17 9 21
54 9 1 40
13 24 29 14
40 59 56 43
250 249 24 234
52 203 161 55
24 29 17 40
4 207 223 161
54 62 38 46
4 12 7 20
14 6 240 148
26 10 242 210
140 156 18 196
240 231 191 175
239 9 236 131
214 213 197 149
192 208 43 32
14 238 254 30
37 45 221 59
199 207 223 215
52 60 44 12
25 17 9 54
21 29 13 50
7 15 23 41
54 38 13 16
192 18 26 208
28 4 20 12
4 20 7 23
59 240 51 43
9 25 17 197
55 63 16 51
25 9 26 10
55 63 26 10
5 13 14 63
16 19 31 23
253 229 245 213
36 39 52 55
163 24 171 197
62 49 51 61
17 103 119 115
175 72 186 170
14 30 6 29
31 28 23 20
251 43 59 51
54 207 62 33
232 33 235 21
198 214 213 197
187 171 179 205
52 60 36 63
32 49 40 33
60 44 52 36
4 1 8 12
21 5 29 13
9 25 1 17
55 63 52 36
204 148 236 231
52 206 36 30
20 205 214 221
23 31 238 254
171 169 162 187
54 62 39 28
175 148 151 238
44 39 23 36
29 13 30 131
10 1 9 2
157 141 158 213
32 19 42 41
36 52 28 23
164 12 167 13
29 13 21 14
253 237 131 245
45 7 18 2
59 43 163 23
51 35 48 59
15 3 31 7
254 238 230 4
5 53 21 12
167 183 6 51
6 14 22 7
3 19 11 245
48 8 32 40
50 34 49 58
173 26 189 40
42 58 34 52
4 5 20 54
139 251 155 235
61 221 52 36
241 193 249 129
240 13 49 243
60 14 6 52
20 4 7 23
60 52 44 36
20 13 5 6
5 13 28 12
33 49 5 31
5 1 13 21
5 6 21 22
10 17 1 3
7 23 207 15
20 4 28 12
63 60 45 47
199 46 143 12
203 200 216 16
228 2 10 1
45 250 36 39
2 1 207 18
199 215 140 54
7 15 58 227
13 1 5 140
150 51 142 234
61 6 242 34
214 222 198 12
32 56 40 48
15 7 12 31
9 1 227 10
37 226 54 38
9 1 17 10
1 9 4 5
225 241 205 17
207 243 223 240
15 7 57 31
13 5 53 250
7 23 250 234
53 37 61 12
46 62 38 54
1 4 9 17
7 23 15 31
10 2 14 9
1 4 226 12
14 13 6 30
4 12 5 20
197 213 177 205
198 206 214 197
4 20 236 200
13 56 59 40
8 24 57 49
58 34 50 42
197 198 174 213
242 158 241 134
27 205 162 192
54 53 38 32
104 50 120 58
19 222 38 16
7 23 15 31
255 252 254 244
221 222 22 214
51 35 24 8
3 53 255 54
193 209 140 251
7 15 31 23
55 62 39 54
19 3 175 201
27 60 44 11
232 161 6 223
42 58 41 34
226 203 219 47
27 11 19 21
14 30 6 1
175 172 167 183
10 26 2 18
55 39 63 47
55 39 52 36
52 36 60 199
16 33 45 49
9 25 1 10
176 115 112 160
86 85 173 210
242 226 241 203
55 63 60 52
52 249 60 36
27 209 11 194
210 194 8 19
8 11 14 16
25 9 7 63
129 73 245 63
254 238 253 246
254 238 253 119
254 191 188 238
19 3 16 55
19 42 27 11
19 55 63 3
63 55 152 60
216 200 152 60
183 63 167 110
15 106 7 253
230 245 246 229
55 140 156 39
60 52 63 44
160 176 24 203
11 8 27 24
213 131 198 197
224 63 25 240
60 238 237 63
204 207 23 252
204 220 252 120
27 11 42 68
42 63 58 228
63 47 216 162
55 216 7 15
192 208 174 157
209 204 58 41
51 48 32 37
68 71 52 37
37 60 203 53
37 53 68 33
37 53 41 49
41 37 57 53
41 42 57 58
204 240 200 220
233 249 93 68
71 68 94 93
29 13 68 71
14 13 29 30
13 14 29 21
30 29 14 13
178 162 30 85
74 94 69 73
240 243 162 161
130 240 129 16
26 25 123 71
214 127 115 111
60 63 44 52
30 14 6 212
254 11 253 27
152 203 26 237
52 55 14 4
55 52 63 27
63 60 27 176
23 27 74 194
7 71 129 130
145 146 7 129
41 197 225 42
145 136 39 55
55 207 52 63
253 254 232 237
9 25 182 212
12 28 8 145
4 12 205 15
208 192 242 226
26 31 10 14
161 19 44 60
55 63 39 36
52 19 53 101
167 219 203 248
209 3 193 129
27 213 154 24
158 142 186 134
210 19 27 39
207 204 238 158
19 79 3 76
180 205 225 221
34 33 50 84
22 99 87 10
221 222 23 7
196 212 109 199
101 117 75 88
203 117 200 219
211 244 247 145
196 83 34 111
205 221 54 38
217 201 192 208
15 31 12 27
197 240 208 192
226 19 27 3
61 53 37 45
15 12 7 4
42 44 60 32
12 20 4 28
214 168 220 212
54 23 53 208
148 52 132 212
41 13 60 57
1 17 25 9
27 11 19 35
52 36 171 222
27 11 45 37
24 8 41 16
167 183 198 76
253 9 237 218
236 252 239 255
18 26 244 211
242 214 226 22
54 62 61 53
58 50 42 34
4 231 228 32
203 131 13 195
1 2 17 9
9 1 25 17
14 13 6 5
232 235 248 204
243 12 240 227
43 50 34 52
209 33 193 34
19 16 24 210
12 28 175 191
34 52 50 36
9 1 16 215
19 3 93 84
1 9 232 135
224 227 9 196
167 201 175 217
13 14 220 179
198 214 49 172
101 48 16 117
26 10 18 242
207 223 145 146
35 19 32 3
228 231 244 32
1 9 17 50
9 25 205 53
35 32 202 218
215 1 187 39
44 170 60 195
5 4 1 13
214 101 76 185
1 4 9 16
196 212 44 47
17 172 175 1
62 61 46 53
16 9 1 140
241 27 4 242
245 229 246 196
150 214 198 134
14 209 193 194
163 200 31 216
17 1 2 35
231 14 30 228
9 232 218 248
22 30 14 6
6 5 14 18
63 55 37 42
5 204 207 199
32 47 40 56
5 25 26 53
231 45 46 236
2 9 196 1
9 1 56 32
13 5 17 1
4 9 159 56
5 13 6 186
9 1 12 48
13 5 33 41
56 4 40 1
219 211 252 242
4 9 12 13
5 21 13 29
4 227 20 243
13 33 248 148
58 42 28 43
220 204 212 196
9 1 17 12
5 13 21 29
207 199 223 231
41 13 33 5
32 40 56 48
255 194 250 242
143 199 215 135
226 242 186 196
1 9 207 5
44 60 14 47
17 1 9 5
207 235 199 215
196 212 28 12
17 16 9 1
6 42 14 5
251 207 235 1
39 6 22 63
13 9 14 1
4 61 9 222
199 235 232 227
5 21 13 6
36 44 250 255
199 196 235 232
10 2 15 55
14 6 10 26
221 178 205 53
2 15 7 10
206 205 226 234
205 221 149 150
32 48 53 56
20 28 249 145
30 14 57 22
53 45 29 37
50 58 44 230
235 251 243 179
250 234 146 226
6 10 14 22
53 45 61 37
27 50 10 9
41 57 205 55
9 45 37 61
40 56 59 32
5 53 17 61
44 47 60 63
63 47 55 53
9 1 25 17
227 235 224 232
252 255 236 207
47 197 221 205
10 26 27 2
9 1 25 10
1 17 4 20
4 20 49 50
25 17 1 9
31 15 197 198
25 17 9 29
227 243 197 200
17 1 18 2
221 205 233 213
227 235 243 251
4 7 12 20
61 63 35 53
57 44 242 214
25 17 9 1
17 25 9 26
25 17 26 9
17 25 9 1
25 9 26 251
9 1 37 25
12 28 4 20
52 34 45 46
8 24 32 48
23 7 31 221
35 51 49 32
17 13 5 164
13 29 5 21
15 12 185 27
53 2 17 1
7 23 10 15
226 242 225 205
35 32 53 54
207 223 251 248
7 15 23 31
30 47 63 37
29 21 9 13
9 41 33 8
28 20 12 4
16 227 224 160
47 62 53 54
58 50 1 234
33 49 50 34
235 227 207 224
24 8 1 16
56 41 57 63
234 233 146 249
5 9 25 21
56 40 32 48
21 5 13 29
34 33 42 41
12 1 9 28
14 34 42 6
6 41 14 33
10 2 221 234
199 215 6 241
48 33 40 51
225 226 241 234
7 23 4 189
61 45 54 53
144 128 147 115
58 57 42 36
24 16 57 41
45 46 60 44
33 29 41 16
17 25 227 1
25 17 223 9
26 10 18 37
37 38 53 54
21 16 33 49
41 42 57 58
25 26 9 10
239 255 45 37
236 44 46 216
25 29 9 30
17 25 16 24
17 1 25 9
17 45 25 61
25 10 26 9
29 231 140 37
33 49 52 34
25 9 243 240
213 3 19 16
50 26 18 10
26 25 18 22
41 42 8 29
4 20 12 227
14 6 22 30
21 29 37 53
1 9 17 29
41 33 56 40
1 12 4 45
22 6 5 30
34 33 50 42
9 1 25 17
34 56 40 20
22 30 63 33
45 29 21 37
42 41 33 34
22 30 7 21
29 21 25 9
4 12 7 213
25 17 9 26
12 20 239 221
15 7 23 33
2 18 10 26
45 34 61 46
28 33 20 12
34 31 12 28
25 17 207 28
205 221 241 141
54 12 32 53
46 213 38 45
198 214 1 206
232 235 248 251
62 227 61 45
46 32 40 62
41 32 38 35
4 7 37 45
44 60 61 36
203 219 189 162
10 212 26 2
61 223 45 166
36 54 39 134
34 42 205 58
220 204 212 238
216 200 2 53
48 32 1 9
30 14 51 35
227 203 171 231
212 196 199 215
5 21 6 41
62 54 4 46
232 235 248 251
244 197 60 247
37 48 53 20
1 21 29 9
46 62 38 54
235 143 23 10
197 213 58 34
56 48 40 32
13 5 14 29
250 203 230 234
235 207 232 199
34 50 33 42
241 56 196 48
41 42 252 56
40 42 32 56
199 234 249 233
204 232 248 240
33 55 49 34
40 58 56 42
42 58 41 40
56 40 43 249
197 169 205 161
21 29 5 239
41 252 236 244
250 17 244 199
12 197 28 4
199 235 215 251
14 233 197 225
37 45 61 53
9 25 10 1
226 185 193 225
192 195 54 200
12 4 8 234
207 204 199 33
13 14 205 197
40 32 54 62
7 15 35 43
4 12 20 28
7 254 238 11
7 15 2 19
59 43 8 139
213 38 54 23
5 13 6 21
19 50 34 213
214 177 205 197
5 13 9 1
59 35 51 43
54 53 38 15
6 225 241 22
27 198 178 19
9 1 2 25
7 23 9 4
4 9 45 196
249 233 205 225
32 35 238 4
242 204 252 250
23 31 7 201
232 235 179 21
11 35 15 51
255 28 211 12
7 23 15 31
22 6 7 221
34 33 50 46
197 226 221 234
55 52 63 33
34 42 59 43
15 7 31 23
11 13 3 5
9 1 25 17
242 226 10 250
15 3 7 31
51 35 57 59
33 59 34 49
40 206 43 222
54 28 12 62
213 221 201 13
33 41 46 57
254 251 238 1
37 53 45 12
13 29 14 30
165 181 25 223
41 57 42 39
23 7 27 19
23 19 7 31
50 22 6 34
27 19 24 11
206 198 214 221
206 205 222 221
23 31 15 7
15 7 31 23
5 13 27 29
41 57 15 51
15 31 7 23
7 15 23 11
221 213 205 206
198 234 242 250
3 2 6 11
12 4 7 15
13 5 12 4
13 1 5 29
5 13 29 21
13 5 29 14
5 33 13 41
41 57 33 49
33 5 57 41
205 234 233 197
234 233 198 197
226 198 234 225
198 234 170 206
5 21 13 1
31 15 7 23
13 5 29 26
52 36 60 13
44 60 47 36
1 9 2 10
226 242 234 206
7 15 31 23
9 1 25 17
13 1 195 5
10 2 1 9
239 190 243 57
197 133 225 227
207 227 224 184
15 12 172 241
243 227 5 78
7 35 54 53
203 53 37 43
243 133 251 59
239 236 195 255
177 161 9 197
1 9 5 13
15 57 206 49
2 1 18 17
226 242 234 250
14 13 54 53
40 32 50 56
233 236 241 205
198 36 234 250
9 10 1 2
1 226 37 53
1 9 13 2
4 1 9 17
15 7 31 23
13 5 29 9
242 198 51 206
59 51 13 43
24 25 27 16
28 12 4 57
30 10 2 14
31 15 7 23
21 29 30 10
140 143 156 132
38 54 62 46
6 22 14 202
43 149 242 226
45 61 53 37
204 220 47 54
39 62 55 38
50 36 58 34
10 2 26 6
30 8 6 24
26 10 18 35
47 12 39 4
14 13 6 22
28 20 12 4
59 11 51 35
5 13 21 248
7 23 207 31
197 46 62 205
13 250 234 226
13 5 35 29
1 9 17 5
18 17 1 25
214 198 227 206
15 7 46 12
200 216 208 203
254 253 28 238
9 1 196 29
255 207 252 50
5 193 183 40
29 13 5 42
1 17 9 25
225 42 226 41
54 38 62 46
20 29 28 45
208 32 40 41
36 39 236 55
9 1 160 163
1 9 25 17
42 23 31 45
42 58 33 41
20 28 31 23
1 9 212 171
39 62 255 252
36 44 13 18
44 47 33 202
30 29 214 21
15 46 31 30
32 40 48 33
5 13 12 29
1 9 17 61
216 32 200 192
13 44 36 5
21 29 5 1
9 1 25 17
41 42 58 211
42 13 41 208
29 21 5 13
17 32 1 40
244 252 216 247
13 5 29 41
9 21 5 25
1 9 17 25
41 33 42 34
42 34 5 36
21 29 5 13
40 32 33 49
44 60 252 36
5 13 21 41
1 17 9 29
30 2 18 22
41 42 34 33
226 16 242 24
9 29 30 1
41 33 57 40
18 12 28 5
1 9 17 25
247 255 35 41
44 208 60 47
5 34 13 50
21 29 5 20
21 5 29 9
39 219 40 255
36 52 39 252
5 21 13 33
9 1 25 29
30 2 22 10
42 41 34 43
20 5 13 28
5 21 9 25
131 208 128 251
13 59 36 35
29 47 21 13
30 29 22 14
213 197 53 52
54 13 246 62
28 29 12 53
32 48 40 131
208 211 192 36
235 251 232 248
156 242 63 41
1 220 29 17
1 17 29 21
224 9 168 196
113 97 77 7
9 166 25 182
42 41 102 58
27 38 11 248
83 78 67 94
174 208 212 87
219 34 33 49
102 5 59 43
47 224 60 44
18 2 26 17
250 175 191 188
232 248 21 235
37 9 132 53
46 62 153 2
13 29 45 224
21 5 28 9
2 1 17 18
215 199 175 191
104 11 81 65
50 16 117 34
58 57 159 8
32 40 58 48
12 28 15 5
21 5 36 22
1 31 57 199
10 2 18 26
31 15 154 210
51 200 35 162
234 384 28 392
77 116 20 23
246 153 156 115
41 57 32 47
3 27 19 11
24 16 20 241
45 61 53 37
33 49 41 57
28 12 29 20
47 220 195 211
33 49 50 45
31 15 28 12
29 21 13 242
51 5 13 35
97 24 8 20
29 21 13 5
53 37 28 54
203 219 216 200
208 170 192 162
57 213 49 58
229 24 11 27
161 196 50 212
244 252 215 56
24 183 199 215
46 45 15 10
53 220 52 204
12 28 4 20
191 22 199 183
21 5 29 13
211 195 6 245
28 12 29 20