# MaxFreqExtractor features
# Channels: 2
# Frame size: 1024
# Hop size: 512
# Sample rate: 48000
# Frequencies per frame: 4
26 10 25 18
46 38 45 62
17 25 26 18
45 58 139 155
207 215 223 25
32 220 40 162
216 255 208 223
222 231 206 158
101 102 117 118
251 215 205 235
16 19 3 44
25 17 174 26
44 29 36 60
25 17 56 40
37 61 45 47
25 17 9 1
45 61 37 46
25 17 9 1
29 21 215 220
136 20 139 152
168 218 248 184
223 215 243 220
236 146 138 244
176 160 168 184
223 199 215 209
210 244 218 146
224 168 248 184
28 215 199 212
21 5 29 55
223 62 248 220
5 164 10 193
30 14 22 23
17 53 25 36
54 38 46 62
11 135 255 247
221 249 233 205
57 41 58 8
195 192 185 197
29 1 13 61
35 51 37 45
251 215 223 248
26 10 18 25
174 230 25 190
46 45 146 236
26 45 47 29
207 223 25 17
118 102 214 234
215 199 44 196
215 199 251 9
216 219 213 197
253 254 223 220
236 252 233 49
147 216 219 255
134 18 158 254
44 43 46 40
245 253 237 193
194 210 19 240
24 32 217 218
45 155 34 46
17 21 29 5
56 40 210 48
28 253 229 254
193 62 38 61
2 18 17 210
22 210 201 38
29 21 13 43
56 40 59 32
164 201 202 218
198 197 134 234
50 175 192 38
231 49 239 228
3 2 18 10
20 16 42 58
195 203 33 49
35 43 40 32
1 45 9 198
2 1 10 9
177 178 159 241
1 17 9 25
195 206 192 211
226 242 241 225
5 21 61 62
142 9 25 55
228 231 244 236
6 22 52 36
197 28 244 20
185 169 186 170
43 59 40 51
56 40 32 48
7 60 15 52
11 35 3 51
23 62 61 54
11 3 27 8
7 15 23 4
38 54 52 62
60 11 240 52
7 4 15 23
11 43 18 10
6 22 15 52
42 12 4 3
206 18 2 22
136 139 246 245
27 55 42 41
9 1 236 252
7 172 192 195
53 54 178 114
5 9 159 240
33 78 55 77
39 63 118 55
209 49 193 210
33 59 41 49
9 10 46 59
56 59 48 40
41 57 203 35
1 61 12 9
56 40 12 8
56 14 59 40
46 62 5 191
4 12 28 20
41 57 49 33
13 1 9 6
111 250 94 17
2 1 18 17
1 17 198 2
194 210 226 242
53 37 44 54
197 213 208 48
54 254 53 4
134 150 149 133
231 154 138 55
248 8 132 240
251 245 33 229
8 207 128 24
204 220 61 223
10 9 2 155
33 1 231 247
201 217 44 36
243 215 179 251
12 244 228 56
240 224 243 248
204 220 60 253
207 1 223 255
14 30 56 40
143 243 227 16
35 32 51 48
170 196 186 162
9 25 10 1
47 44 63 12
255 35 239 252
40 56 196 199
199 215 43 59
17 1 9 8
45 61 12 37
219 199 203 215
230 185 238 246
199 215 196 207
195 192 211 203
240 212 230 248
207 235 236 199
195 211 219 203
17 29 10 18
9 32 40 30
29 30 14 13
9 25 10 17
32 1 17 9
37 53 61 45
45 37 53 61
25 143 151 159
239 255 252 236
16 33 41 17
231 37 247 53
29 13 41 227
62 46 61 54
212 196 199 221
46 34 32 45
240 222 224 16
49 34 50 33
207 231 236 239
2 1 18 17
226 242 234 250
223 207 215 199
248 240 215 196
56 40 38 54
9 25 1 10
29 13 21 5
9 40 56 1
29 13 21 5
56 40 59 34
216 200 219 203
223 165 240 248
211 195 249 228
12 44 4 50
1 17 13 14
56 40 37 30
2 18 10 203
212 196 206 240
236 215 199 223
248 232 240 204
2 34 136 33
232 143 247 248
5 28 12 4
43 35 29 175
28 20 12 56
43 13 29 59
48 32 35 60
10 9 26 25
206 205 142 222
33 49 237 157
157 141 158 107
78 94 7 6
246 230 182 190
166 63 182 190
15 31 22 7
33 34 51 35
196 212 5 43
40 56 43 38
34 50 42 58
56 40 58 34
34 50 33 49
38 54 52 60
13 5 201 217
35 40 56 43
5 13 38 46
60 52 63 221
60 52 37 13
45 37 46 60
177 161 219 225
149 133 150 62
142 58 104 50
198 161 197 214
255 157 239 133
205 142 234 221
185 169 206 161
185 169 186 177
206 221 162 198
198 206 222 197
242 226 159 45
59 63 47 55
31 45 28 37
199 196 204 140
7 23 15 31
59 51 185 169
171 7 187 15
167 164 15 7
48 51 4 32
26 18 234 2
46 38 180 207
15 7 47 61
133 149 145 146
18 2 38 46
53 140 33 15
59 43 40 56
219 203 195 211
9 13 25 186
44 36 52 250
133 210 149 145
203 219 48 51
54 2 18 10
133 230 229 165
185 177 29 203
47 39 63 55
14 23 7 31
32 40 51 35
9 54 1 185
196 199 215 212
141 133 149 134
9 153 56 134
18 2 10 17
211 29 21 195
1 9 206 246
204 247 244 173
203 6 22 173
145 206 44 18
186 185 170 206
48 56 185 51
51 59 35 43
183 24 167 230
133 226 225 134
50 34 247 231
48 6 56 14
5 13 21 1
46 62 38 54
51 32 48 35
51 193 207 35
42 34 58 132
180 37 48 164
5 9 13 1
44 48 47 36
48 248 159 32
56 126 110 125
9 25 1 17
61 45 53 37
1 212 62 2
59 56 40 10
133 134 48 149
51 35 203 145
231 247 144 215
54 38 18 13
56 175 40 167
4 20 12 28
10 9 26 185
199 207 215 28
53 63 133 204
28 37 53 12
9 1 154 138
5 21 29 17
49 199 33 204
217 201 193 245
247 33 255 56
5 6 13 41
53 37 41 57
227 235 199 207
13 29 5 9
14 6 13 30
39 47 63 29
53 37 231 247
22 6 201 30
29 21 13 30
17 20 28 206
40 32 56 48
26 30 6 14
13 5 29 21
232 46 140 45
199 207 241 236
20 4 28 32
22 56 6 48
177 206 205 241
204 250 28 12
56 48 40 32
14 6 30 35
5 13 12 28
48 40 56 32
13 5 14 6
12 4 13 15
143 227 14 35
10 146 210 59
9 1 17 25
4 57 40 58
59 13 14 6
23 20 7 15
12 4 175 28
43 59 6 13
24 8 27 18
14 47 63 114
61 62 105 166
10 9 27 24
32 48 14 6
46 61 45 62
205 3 162 19
178 162 161 23
62 54 157 46
4 51 59 43
23 7 31 253
162 161 157 114
48 51 56 59
12 4 28 20
51 35 13 14
4 20 38 12
6 5 21 22
157 50 5 58
12 28 20 4
56 58 48 42
6 22 5 13
7 38 15 4
27 19 43 58
24 27 8 54
158 157 142 160
14 30 6 22
126 2 26 10
145 153 146 154
62 54 253 63
35 43 51 59
99 157 158 142
154 254 146 253
24 16 19 27
162 170 34 219
161 177 104 219
16 215 199 144
30 14 22 29
219 181 203 165
9 17 61 24
247 244 228 231
16 19 9 1
55 39 47 63
53 247 37 61
9 1 25 10
43 63 35 55
119 116 103 100
52 53 60 54
207 189 223 26
172 136 180 239
30 29 22 47
19 3 27 11
198 246 230 123
38 54 211 62
45 61 241 37
33 49 34 57
90 61 27 44
28 12 143 4
146 130 145 154
7 23 2 1
169 177 206 185
59 51 43 56
7 23 4 20
59 43 26 51
217 201 7 241
51 59 48 34
62 242 241 177
54 53 190 38
242 241 226 225
43 35 51 59
150 134 229 133
16 23 225 38
18 56 6 26
54 215 38 39
200 203 219 166
50 21 49 198
3 19 10 26
23 31 51 15
48 51 59 56
115 31 55 23
58 50 206 42
48 233 158 133
177 71 87 186
177 178 200 216
48 186 204 220
207 199 177 180
134 234 226 133
140 156 220 159
241 215 199 223
10 40 26 48
248 214 203 168
227 236 228 243
232 226 242 248
225 226 145 242
241 161 177 225
35 43 51 59
185 177 204 186
35 43 51 40
19 27 3 11
23 55 31 7
11 27 3 19
241 225 4 205
242 99 206 222
4 193 26 194
7 15 123 4
51 59 35 189
245 178 246 241
35 51 50 58
253 245 229 230
161 162 211 200
44 36 60 52
48 40 56 32
13 5 29 21
252 41 216 219
29 30 21 13
252 244 12 28
254 230 165 246
208 192 57 200
40 32 43 35
254 195 238 243
211 195 208 240
29 39 30 21
67 83 42 129
230 246 32 201
35 10 43 2
21 5 118 127
50 34 42 58
150 248 158 134
203 157 141 233
137 129 241 225
142 158 241 206
225 226 162 178
23 163 171 213
233 249 241 225
47 170 15 186
110 3 71 88
79 103 43 59
103 111 59 43
43 71 103 35
43 35 59 51
35 43 7 51
99 115 107 90
96 104 120 20
185 206 197 198
27 11 247 244
47 63 39 44
15 31 23 7
192 200 216 208
23 7 15 31
15 38 7 54
7 23 15 11
15 7 23 31
11 15 7 3
7 15 23 4
15 12 7 4
15 7 14 60
7 54 38 15
4 12 8 7
52 10 54 36
52 60 206 54
15 7 242 54
16 8 24 60
52 252 6 206
60 189 30 44
52 2 253 237
63 47 244 228
206 222 205 182
180 129 164 196
39 47 55 29
167 183 138 201
190 237 189 253
47 39 63 8
106 103 119 111
174 190 183 2
110 126 154 138
110 126 175 90
60 8 44 33
60 44 52 63
63 201 177 6
27 18 59 138
17 25 1 9
37 53 45 60
171 215 199 207
226 242 234 250
199 215 140 196
207 223 236 243
195 211 36 52
199 215 204 207
236 225 199 241
242 198 226 220
199 215 207 196
255 200 252 236
144 202 250 216
235 232 207 251
227 224 36 241
238 194 254 13
200 216 203 219
211 192 228 195
196 254 17 219
235 232 30 14
30 14 200 211
61 19 53 27
4 28 12 20
43 35 40 233
27 19 11 24
27 19 11 3
44 47 39 53
201 28 202 31
58 39 47 246
36 39 44 47
4 7 20 27
47 63 55 11
211 195 15 63
4 12 20 28
43 40 35 32
230 42 194 41
10 26 25 9
43 230 35 17
14 6 30 13
5 9 10 21
32 40 35 43
47 5 39 6
1 9 28 13
63 40 47 39
43 35 59 5
12 4 40 56
12 4 28 15
43 35 40 49
40 32 215 194
30 6 14 22
2 10 1 6
1 9 29 2
9 28 215 56
223 207 215 189
17 1 18 25
54 12 28 53
8 12 16 5
10 26 203 219
41 42 33 5
17 220 9 223
3 53 11 168
13 192 5 173
41 13 226 33
13 5 29 21
15 14 6 10
195 231 239 203
56 40 48 4
5 248 13 224
56 48 40 43
231 247 228 208
230 246 238 229
202 218 194 210
199 207 220 196
49 50 33 224
38 227 207 199
1 9 17 2
197 198 205 44
4 20 7 23
204 232 196 235
14 56 33 41
205 204 235 207
12 9 28 46
44 56 43 59
1 17 8 24
34 20 42 4
199 215 228 192
1 35 13 17
247 234 231 133
4 12 28 48
13 9 5 1
14 6 30 42
9 1 231 236
54 36 44 62
226 242 239 250
235 227 243 135
176 46 204 254
17 4 1 29
32 48 56 35
29 21 13 5
4 12 1 9
233 234 226 242
49 57 48 58
239 236 250 203
38 255 1 129
195 203 192 219
36 62 60 128
23 44 255 30
195 178 225 226
208 203 192 200
200 216 213 197
15 31 6 22
54 38 177 236
36 52 44 60
46 38 15 54
7 15 11 195
252 15 12 236
15 54 3 7
7 3 15 11
11 8 3 4
11 12 15 3
6 14 15 54
8 11 3 142
5 21 13 242
5 13 21 8
250 242 206 34
250 206 198 214
5 1 17 9
5 198 206 13
5 13 21 6
200 216 172 239
199 227 235 240
9 1 45 218
1 9 17 2
62 36 236 54
1 16 12 13
35 4 32 7
198 44 197 47
4 1 17 8
1 9 47 25
60 44 31 15
34 50 230 16
31 15 43 3
30 47 14 22
43 39 250 36
195 211 203 219
30 29 14 21
215 212 199 223
60 44 32 46
220 195 239 30
25 9 17 1
43 58 57 29
248 251 223 232
35 43 32 59
223 251 220 207
220 248 232 45
45 9 61 37
38 37 60 44
8 233 225 249
13 29 214 198
197 213 205 225
9 13 1 5
14 13 30 6
248 251 135 132
252 244 228 236
223 220 207 215
4 20 28 12
41 57 38 16
22 30 6 58
25 21 26 198
4 12 5 54
5 13 8 4
234 142 206 250
5 1 206 198
1 9 2 204
206 234 198 242
204 212 196 220
206 204 214 140
206 5 198 13
196 204 206 198
31 23 15 240
1 9 25 17
7 15 23 206
224 240 232 57
15 7 23 31
15 57 7 33
7 15 38 62
5 57 41 13
15 7 31 23
15 7 23 11
13 1 9 15
15 7 3 11
1 9 13 5
13 50 58 197
13 9 1 48
9 1 197 249
9 13 1 45
197 205 213 214
206 234 242 226
200 192 236 216
200 192 208 227
249 210 130 52
13 5 29 21
61 52 60 53
50 8 16 58
26 18 19 2
4 12 45 37
227 235 199 15
6 14 22 30
203 195 239 255
56 48 58 34
5 13 41 33
24 8 16 4
5 1 13 9
13 4 54 46
59 35 43 51
221 20 213 222
34 33 42 41
227 40 235 251
5 1 9 6
255 252 244 247
9 4 1 17
224 232 227 196
6 37 61 53
9 1 207 213
13 29 4 54
7 15 12 4
9 28 20 17
34 6 33 42
227 235 228 236
9 2 1 10
226 198 234 250
4 12 56 48
196 224 212 240
54 37 38 63
1 9 231 255
17 13 25 29
12 4 56 40
251 243 13 9
34 33 59 50
192 200 228 208
13 5 30 9
44 36 47 39
1 9 4 56
199 196 243 215
56 48 40 32
215 207 223 204
20 4 13 5
60 52 55 63
166 182 64 19
30 188 16 22
195 31 228 198
5 14 6 13
2 10 19 18
235 135 146 254
240 248 224 196
39 63 53 55
5 13 21 4
13 5 17 25
4 56 40 12
9 1 13 24
14 6 30 13
200 192 203 195
1 9 2 45
7 15 248 44
56 48 4 32
204 13 207 215
40 56 6 22
1 9 17 4
17 1 5 13
56 48 59 4
1 9 199 17
6 14 49 57
213 221 227 205
17 1 40 48
196 224 176 212
172 195 231 236
34 33 6 215
250 234 206 203
45 35 46 207
28 40 12 56
48 4 51 32
227 243 15 199
18 10 2 26
206 234 205 178
4 20 9 12
15 7 31 12
46 48 38 56
2 10 6 1
36 38 46 61
1 9 2 10
206 221 205 222
4 59 43 53
9 199 235 243
13 251 14 243
45 37 61 46
13 20 4 28
7 15 33 31
20 4 56 28
13 5 1 9
236 239 228 50
1 9 32 17
204 196 148 10
61 45 53 37
199 227 235 207
53 13 14 37
44 234 38 250
199 232 248 224
13 33 29 5
18 26 50 30
212 220 215 196
198 211 39 247
243 147 208 235
16 249 8 1
18 2 26 10
13 5 29 14
5 21 13 242
248 44 36 29
222 214 8 24
31 15 7 33
239 236 203 159
9 1 17 25
222 158 214 250
4 12 20 37
53 17 5 212
50 19 43 14
203 30 41 200
41 33 57 214
38 37 54 35
240 243 46 204
240 59 250 132
54 40 53 38
145 201 146 217
253 237 153 154
54 165 249 173
27 59 63 199
62 47 63 14
191 175 188 113
52 60 24 27
251 235 206 243
24 8 16 3
246 197 230 6
54 53 61 44
4 12 243 20
204 207 220 52
56 235 40 251
27 21 5 11
55 52 22 63
41 20 57 33
205 206 221 208
164 222 228 221
10 26 33 9
25 9 209 24
222 206 221 18
131 42 147 25
2 238 254 142
26 18 22 30
34 33 42 41
15 155 152 31
22 21 26 25
24 41 42 45
248 240 243 227
6 2 22 5
33 41 48 197
247 167 7 23
222 168 24 85
33 34 59 42
152 136 7 224
108 26 111 22
60 44 52 36
155 60 139 52
43 49 35 50
213 216 162 174
41 35 57 37
197 213 4 230
241 43 225 242
27 50 3 34
152 155 228 136
14 40 43 32
27 11 3 19
14 6 30 22
35 43 59 51
14 6 36 44
4 12 1 17
234 242 226 206
18 54 10 2
206 205 214 222
15 7 57 31
205 197 13 221
2 10 215 14
59 49 43 35
14 6 13 5
4 32 40 12
234 226 198 1
12 11 4 15
198 206 214 222
13 15 57 5
13 9 14 1
2 10 35 7
56 48 59 40
243 251 14 199
1 4 9 12
1 9 36 39
60 52 12 11
198 214 206 8
13 5 29 57
14 215 223 6
51 35 59 236
200 44 52 59
6 14 3 22
12 4 28 16
15 31 7 250
1 9 17 25
29 197 241 213
13 5 33 29
6 14 22 10
