# MaxFreqExtractor features
# Channels: 2
# Frame size: 1024
# Hop size: 512
# Sample rate: 48000
# Frequencies per frame: 4
44 60 34 33
46 8 24 43
10 231 228 26
49 33 57 50
251 235 248 5
5 4 52 36
153 241 225 226
44 42 59 58
47 63 36 39
172 252 188 3
16 24 8 19
19 27 30 3
237 167 33 229
238 34 221 213
41 12 33 9
28 12 31 15
342 31 52 15
242 132 413 61
38 414 179 431
147 44 53 351
22 6 15 31
50 49 34 20
20 24 229 245
46 24 16 8
17 18 251 254
20 28 4 12
45 37 52 55
47 39 245 246
34 50 11 58
244 152 18 228
218 42 58 155
194 254 222 193
12 28 4 212
17 1 18 2
249 16 3 141
47 63 44 87
211 186 214 198
170 169 204 84
215 207 223 212
173 17 121 124
46 193 168 127
27 47 253 144
254 246 230 44
27 11 6 22
42 53 37 58
24 32 40 16
46 62 55 7
14 30 15 22
60 52 44 36
3 19 11 27
238 55 27 63
27 19 24 11
34 50 42 19
7 241 15 27
46 35 12 13
460 463 1 190
3 19 4 20
19 14 3 212
17 34 1 25
24 20 4 32
26 10 22 27
9 37 5 53
40 43 149 56
212 31 172 167
249 14 12 30
52 36 60 55
237 219 201 253
254 174 190 238
207 24 223 160
215 87 239 235
146 208 210 226
45 60 44 36
17 26 18 11
50 131 59 203
191 10 26 172
14 30 9 25
47 37 44 53
200 203 27 219
36 182 44 39
19 221 224 248
207 215 223 19
218 202 138 146
235 132 251 232
199 44 202 196
135 3 132 92
126 122 67 64
107 120 4 148
121 362 105 80
122 73 74 230
42 2 234 203
102 206 11 222
57 43 33 32
14 30 6 22
13 5 29 9
1 13 9 5
8 60 24 44
2 10 26 18
6 2 14 3
6 14 2 10
2 10 18 6
8 11 3 239
3 11 2 27
8 24 16 44
8 24 16 44
8 60 44 52
195 239 231 228
2 10 37 45
2 6 10 14
2 6 14 10
6 14 2 1
5 41 13 57
8 24 16 5
8 24 16 60
8 24 44 60
8 44 60 24
8 44 60 52
10 2 53 37
10 2 37 45
6 2 14 10
2 10 6 14
6 14 2 57
6 5 3 13
8 5 3 11
8 24 194 16
8 24 16 11
8 44 60 52
8 192 60 44
10 239 236 44
2 18 10 44
10 26 2 196
6 8 24 22
240 224 227 243
201 51 35 217
3 6 8 33
8 5 13 238
8 194 230 202
8 24 16 60
8 24 16 60
8 44 60 10
10 2 239 231
10 2 26 18
2 10 18 26
2 10 6 14
2 6 14 10
6 57 5 13
8 3 11 5
8 246 218 194
8 44 60 36
8 16 24 60
11 3 27 8
8 5 1 202
8 5 60 13
10 239 2 231
5 13 8 29
60 38 228 52
1 9 5 13
8 60 44 52
10 231 239 195
5 13 8 1
60 8 44 52
1 2 9 10
8 5 13 24
38 60 46 10
1 9 2 13
8 5 60 24
2 10 195 18
1 9 5 2
44 36 52 60
8 24 16 13
8 60 44 24
8 60 44 10
8 44 60 52
8 44 60 52
8 24 44 60
8 24 16 44
8 11 3 24
8 3 11 194
3 11 201 193
2 6 10 14
2 10 14 18
2 10 26 18
8 10 2 60
8 24 44 16
8 24 16 11
11 8 3 194
3 11 6 14
6 14 2 10
2 10 14 6
10 2 26 18
8 44 24 60
8 24 16 44
8 3 11 36
3 11 8 193
6 14 3 2
2 10 6 14
10 2 26 18
8 44 60 24
8 24 44 16
8 11 3 24
3 11 8 58
6 3 14 11
242 250 14 226
14 6 30 39
192 228 236 38
1 2 10 9
228 200 192 236
6 14 2 10
2 10 14 6
8 24 44 60
3 11 8 194
6 3 14 11
196 230 1 9
3 2 11 10
2 10 6 14
5 13 6 9
8 16 52 40
10 2 236 239
2 10 239 18
1 195 9 211
8 24 5 16
8 60 44 52
10 2 46 49
2 10 239 231
8 5 1 9
8 24 16 60
8 60 44 52
10 2 203 195
1 5 6 13
8 5 13 24
8 60 24 44
10 2 231 239
2 6 14 10
5 13 1 6
8 24 16 60
8 60 10 44
10 2 203 195
1 9 2 17
8 33 41 57
8 44 60 52
10 200 192 59
14 37 6 30
9 1 5 10
8 217 60 192
8 38 60 46
10 2 195 231
2 1 10 6
13 8 5 29
8 24 60 16
10 228 231 2
2 10 231 239
13 14 5 6
8 5 13 16
8 60 52 24
2 10 239 236
2 10 14 239
5 6 230 246
8 5 254 21
228 239 236 200
2 10 26 18
1 9 17 2
8 57 24 58
8 200 192 46
10 231 2 228
2 10 1 18
5 6 13 21
8 60 24 52
8 24 195 203
10 2 26 18
6 14 1 2
8 13 5 57
8 60 24 44
2 10 203 195
2 10 239 37
13 5 29 14
180 164 183 167
136 152 121 141
102 2 118 101
77 67 134 53
133 149 205 237
12 28 8 238
49 52 36 55
237 1 229 159
3 138 245 137
13 5 29 21
46 52 36 44
2 10 203 18
1 45 9 46
8 237 45 57
60 52 36 44
10 2 46 60
10 9 26 2
45 59 57 37
182 181 165 194
54 46 38 215
10 2 26 44
10 9 2 14
1 9 237 25
3 11 27 19
19 47 63 39
53 61 17 37
28 8 31 12
235 58 232 57
444 397 135 261
11 27 229 8
14 6 30 22
12 20 4 28
36 46 52 198
60 55 63 61
209 201 217 193
332 58 169 250
335 332 27 71
241 36 453 216
63 107 240 224
209 249 217 252
229 230 245 126
44 36 47 238
247 212 21 220
144 128 147 133
29 211 21 5
208 26 192 18
174 212 48 166
63 44 47 36
76 171 79 167
22 30 50 225
34 50 42 58
86 68 84 251
25 17 28 20
49 33 57 41
12 29 28 20
14 30 47 22
19 27 11 3
250 35 32 58
131 175 172 128
38 19 54 168
200 216 31 23
36 39 40 44
45 46 16 19
20 17 29 13
26 251 235 3
249 238 246 254
168 19 229 232
151 244 215 143
47 36 39 44
3 19 11 27
1 34 47 63
27 24 11 16
39 210 209 55
148 151 135 89
24 8 27 185
152 224 39 243
250 234 233 249
165 253 229 47
215 128 239 223
32 196 217 17
3 16 209 19
22 1 42 6
45 46 61 36
19 3 26 11
17 1 25 18
24 17 20 8
211 208 169 38
208 185 211 195
63 60 33 47
22 30 6 14
60 29 136 44
24 140 27 8
220 223 21 22
25 36 44 39
3 19 16 11
9 47 39 30
44 36 47 60
20 12 218 4
39 52 55 36
219 211 192 200
46 62 38 63
41 40 57 56
35 43 32 51
34 19 42 58
6 32 40 48
43 35 26 12
15 31 23 7
22 42 6 179
30 14 6 22
15 7 4 12
9 1 17 4
5 13 29 21
10 2 37 45
13 5 29 21
2 10 14 6
8 44 60 10
8 24 11 3
11 3 8 27
2 10 192 236
8 24 44 60
11 47 39 63
8 16 24 60
8 44 60 46
9 25 1 5
8 38 192 60
195 239 203 211
5 9 1 13
208 192 46 10
2 239 10 1
5 16 13 9
8 228 231 12
1 2 9 10
8 13 5 24
2 10 239 203
5 13 1 9
8 228 236 60
1 2 9 10
8 3 13 5
236 192 228 172
1 239 9 2
8 24 16 33
203 195 192 200
1 9 5 25
8 24 16 60
231 2 239 10
9 238 25 106
10 236 108 77
5 13 6 164
211 5 159 195
47 192 228 244
206 18 187 203
5 13 228 244
231 2 239 10
13 5 1 9
60 8 44 52
2 37 10 1
5 13 8 1
46 38 10 2
1 9 239 231
8 24 16 60
195 203 10 239
1 9 13 5
8 60 24 44
2 10 45 26
5 13 25 8
8 52 36 16
2 6 1 10
8 5 13 24
231 10 228 239
1 6 9 5
8 60 52 44
45 37 2 10
1 13 5 9
8 60 44 24
2 10 1 239
5 8 13 1
60 8 52 38
1 9 2 239
8 24 16 60
37 45 38 2
1 5 13 9
44 8 52 38
2 1 37 6
9 5 25 1
52 60 36 8
37 1 2 9
8 5 13 29
2 10 46 175
1 13 5 203
8 62 46 60
37 45 203 10
1 17 9 25
8 60 52 44
2 10 1 9
6 14 30 5
51 26 2 18
30 14 6 22
20 28 12 23
33 38 41 43
34 50 10 60
53 198 188 60
46 29 2 62
26 25 255 204
53 37 61 54
57 58 49 144
205 221 206 171
200 252 216 42
56 59 49 63
12 217 28 160
11 3 244 252
232 63 60 18
22 30 6 14
202 41 180 248
197 198 20 28
9 5 16 4
173 131 222 128
20 50 28 130
224 132 240 204
15 14 7 6
10 2 18 14
1 9 37 236
8 60 24 52
239 231 9 1
8 24 194 246
8 24 44 60
11 8 3 36
201 39 3 49
8 24 16 44
8 11 194 44
47 39 63 61
8 16 230 238
8 24 16 44
8 44 24 60
2 37 53 38
1 2 6 9
8 5 1 11
8 24 60 254
10 54 239 38
2 10 37 38
2 1 10 9
8 1 24 16
8 128 60 228
10 2 38 26
2 10 37 18
1 5 13 9
8 60 44 52
8 60 52 44
2 10 18 37
1 9 6 2
8 5 13 24
8 60 24 16
8 10 60 44
2 10 6 14
5 1 13 6
8 24 16 5
8 60 44 24
2 10 18 14
1 2 10 9
57 49 51 59
5 8 13 16
236 2 128 228
2 1 6 10
8 5 1 13
8 44 52 60
2 10 38 18
1 6 2 14
8 24 13 5
8 60 52 44
10 231 228 38
2 10 37 18
5 13 1 6
8 24 16 5
8 44 36 52
14 2 175 195
1 2 239 13
8 5 13 202
8 60 16 44
10 2 8 228
2 10 6 203
5 13 1 6
8 13 5 24
8 60 44 52
10 2 239 195
2 6 10 1
8 5 13 6
8 60 24 44
8 10 60 44
2 10 18 203
1 5 6 9
8 5 13 24
8 52 60 24
37 38 247 53
195 199 203 1
14 30 63 11
77 78 94 93
164 109 125 180
10 9 2 26
3 14 51 11
57 33 49 41
8 192 16 24
47 46 45 44
2 6 203 10
6 14 13 5
8 5 13 60
10 2 60 52
239 231 10 6
13 5 14 6
8 57 33 41
8 44 60 52
8 46 192 52
2 10 18 26
13 5 6 14
8 202 194 182
8 44 60 52
10 2 14 6
1 2 9 10
8 57 3 5
8 166 202 182
60 8 38 46
10 2 37 45
1 13 5 9
8 5 13 24
8 52 36 24
10 2 37 38
10 2 1 9
5 13 14 57
8 16 44 5
46 44 60 8
195 2 231 131
193 209 201 217
5 13 6 52
9 1 17 25
200 216 192 228
6 2 1 14
200 192 216 8
2 10 203 37
5 13 8 1
37 38 45 46
1 9 5 13
8 60 52 44
195 239 231 203
5 13 1 9
8 60 44 52
1 9 10 2
8 24 16 57
228 2 236 239
14 6 10 2
13 243 251 5
8 52 60 36
2 10 1 18
23 62 192 15
1 9 17 25
8 24 16 13
239 2 10 195
13 5 8 1
52 60 228 192
1 9 2 17
8 5 60 13
10 2 239 38
1 5 13 9
8 60 44 52
2 10 1 37
5 8 13 1
60 8 44 52
1 5 9 6
8 16 60 52
46 45 195 203
137 210 194 193
8 60 16 52
43 59 239 231
5 13 6 8
10 38 60 54
1 2 9 17
8 5 16 24
10 2 236 239
1 5 13 6
8 24 16 5
239 43 236 231
5 13 6 1
38 60 44 54
1 2 9 37
8 5 16 1
183 2 167 200
5 6 21 22
8 24 17 1
228 236 231 239
6 14 13 5
44 192 46 60
45 37 1 2
8 1 24 16
10 236 2 239
6 14 5 22
8 16 5 24
10 239 231 2
1 9 13 5
8 60 52 44
2 10 1 195
5 13 1 8
52 44 36 46
10 2 9 1
15 31 23 227
4 12 40 56
13 5 29 21
5 13 1 9
8 60 11 44
8 17 1 9
3 11 19 27
2 201 10 3
2 10 38 26
8 24 44 16
8 11 3 24
6 5 13 14
8 3 58 11
3 11 6 14
57 8 3 58
8 5 13 57
8 24 192 60
8 60 44 24
8 60 44 16
8 60 52 44
10 2 26 18
10 2 6 26
2 6 14 10
6 14 2 10
1 6 237 14
8 5 57 13
8 24 36 16
8 24 16 44
8 24 16 44
8 60 24 44
8 192 60 24
10 2 239 231
10 2 239 231
2 10 18 14
6 2 14 10
6 14 201 237
5 13 217 201
29 13 220 223
201 202 217 218
8 107 104 120
76 92 79 85
236 252 239 228
60 44 10 192
200 2 203 10
10 2 195 231
2 10 6 14
6 2 10 14
3 6 14 11
8 6 5 3
8 194 230 210
8 24 16 60
8 60 44 52
8 60 44 24
8 60 44 10
10 2 46 38
2 10 37 38
2 10 14 18
2 45 10 37
51 49 35 6
8 52 60 44
2 10 1 9
5 13 8 29
10 2 239 231
5 13 1 9
8 60 44 52
1 9 2 10
8 13 5 24
239 38 60 10
1 5 13 9
8 60 52 24
2 10 1 239
5 13 8 1
8 60 52 44
10 9 37 6
13 8 5 29
8 60 44 24
10 2 26 18
8 24 16 60
8 60 44 24
10 8 2 60
10 2 38 46
2 10 18 26
2 10 18 26
2 10 18 26
2 10 203 6
2 10 14 6
2 10 18 6
2 6 10 14
5 13 8 1
8 24 16 44
8 44 60 24
8 24 44 60
8 24 16 60
8 44 60 24
8 60 44 24
8 24 44 60
8 60 44 24
10 2 239 231
2 10 6 14
6 14 2 1
6 3 14 11
6 3 14 11
6 14 3 57
6 3 14 11
3 6 11 14
6 3 14 11
6 3 14 11
6 14 3 2
6 14 2 201
14 6 2 3
6 14 2 3
6 14 30 5
10 2 49 57
10 2 195 239
8 24 16 11
27 19 11 3
21 5 29 13
55 63 39 52
24 8 16 27
26 43 59 53
53 37 61 57
24 16 27 8
170 43 162 186
24 8 232 248
159 55 39 156
24 19 35 16
19 63 147 29
6 191 107 171
60 44 22 52
41 19 27 225
30 6 14 46
29 13 23 30
18 2 26 209
37 38 46 53
41 33 9 55
190 253 183 189
190 42 189 133
152 252 255 81
190 196 189 199
195 5 203 6
217 52 36 255
48 246 32 230
228 236 35 210
11 8 58 27
34 50 48 33
39 27 129 53
36 39 37 157
215 212 492 251
139 155 21 142
58 193 5 21
211 195 24 27
5 20 28 21
3 201 11 16
24 8 214 213
3 27 19 223
38 46 63 180
17 40 37 56
37 53 45 24
22 30 26 18
20 219 4 23
217 24 8 162
16 33 24 41
7 15 27 52
236 27 35 24
215 199 169 72
175 172 75 191
56 146 59 145
217 252 249 236
19 15 31 30
2 18 10 170
1 17 18 2
238 50 254 237
28 21 31 22
16 15 19 31
214 213 198 197
27 236 175 19
188 24 42 154
62 46 45 61
18 31 24 54
18 2 133 30
15 7 23 31
221 30 13 205
250 144 130 248
120 104 123 116
180 203 164 177
240 243 70 69
206 225 42 41
110 254 126 107
2 10 213 197
26 10 18 2
17 244 25 247
253 254 237 238
21 22 5 6
242 196 46 129
183 167 223 191
17 196 25 18
2 10 199 11
1 9 17 2
39 11 55 36
18 17 52 144
54 207 62 255
217 201 113 169
128 146 211 208
167 231 12 60
211 147 195 164
41 42 33 34
27 53 37 4
41 42 57 3
8 16 1 19
12 22 30 33
27 24 130 129
53 37 45 61
48 32 62 46
29 30 10 13
3 11 6 22
38 34 37 54
218 193 194 210
39 36 41 52
42 50 58 41
75 72 24 27
86 169 174 11
12 34 15 22
22 7 21 15
19 40 138 137
27 19 229 42
30 29 52 21
164 218 167 202
44 60 63 52
25 254 26 253
223 204 220 207
251 248 58 56
15 45 34 31
196 53 199 212
3 19 176 184
1 17 9 25
11 48 8 32
12 165 181 28
157 158 107 141
154 252 236 32
19 34 27 39
243 179 13 187
23 48 57 49
218 26 224 25
248 251 232 41
133 233 134 249
60 44 50 58
61 45 27 24
57 41 210 202
3 27 19 11
47 63 46 54
45 61 16 46
164 55 11 180
14 30 22 61
56 3 33 16
214 240 232 25
364 367 37 38
220 223 175 183
252 222 160 198
24 27 16 19
219 193 210 194
41 149 133 8
52 24 36 128
