# MaxFreqExtractor features
# Channels: 2
# Frame size: 1024
# Hop size: 512
# Sample rate: 48000
# Frequencies per frame: 4
10 54 62 2
11 3 6 27
9 231 239 203
44 47 60 15
4 7 12 15
251 135 199 196
58 34 42 8
216 34 239 231
18 26 3 11
3 11 9 27
13 5 29 21
29 21 30 14
51 49 59 41
182 238 254 246
200 216 236 244
217 245 218 246
34 55 6 14
44 3 39 36
244 208 252 216
246 254 238 194
35 43 59 5
227 224 235 232
4 23 7 20
56 34 42 63
59 53 43 240
45 61 37 43
32 46 48 45
200 236 216 192
3 5 8 11
34 33 222 2
15 31 7 138
24 16 8 4
226 242 28 20
25 17 9 1
246 146 244 202
5 8 6 41
221 225 205 233
7 15 43 35
7 23 15 37
6 14 142 230
26 42 18 41
33 41 49 57
231 167 195 26
15 7 23 31
53 61 52 36
46 45 4 12
214 248 184 240
21 29 37 38
221 205 249 213
53 39 55 47
18 26 10 2
2 10 236 228
15 30 6 14
1 17 9 2
6 201 193 14
10 14 2 6
1 2 10 9
4 9 12 1
2 10 18 14
8 11 3 4
8 24 16 1
52 60 36 44
8 5 13 24
3 39 11 238
19 3 16 55
196 204 232 224
57 41 33 56
33 41 59 49
7 15 3 19
6 233 225 58
30 14 22 6
48 56 32 201
5 13 57 33
30 2 10 22
29 13 21 59
1 9 17 25
216 26 208 236
209 217 201 193
4 12 17 25
10 2 26 18
15 200 7 192
13 5 9 1
11 3 15 27
31 23 7 15
241 249 197 242
39 47 34 6
218 210 45 37
37 38 46 54
227 207 199 224
1 5 2 13
51 45 37 59
5 8 16 24
12 4 8 16
209 195 203 239
47 39 17 16
18 2 10 26
32 40 48 56
30 15 10 7
4 20 12 28
58 50 11 34
235 227 232 224
35 51 59 43
62 48 32 36
222 206 221 250
231 239 247 255
25 9 17 1
10 26 2 18
9 1 25 17
5 13 1 9
42 41 5 34
32 58 40 42
12 176 240 4
33 41 42 34
8 13 5 24
14 224 226 47
41 12 4 42
13 200 14 5
12 9 13 4
11 3 15 7
6 14 30 22
1 9 17 8
46 54 62 38
61 194 210 53
47 39 214 37
212 196 243 227
229 237 193 201
54 14 6 62
226 234 162 204
7 15 23 12
13 8 4 20
13 5 29 21
50 34 58 6
13 29 5 21
8 24 16 46
8 10 2 24
228 236 10 192
11 3 8 230
38 2 37 46
2 51 59 10
239 2 231 10
57 5 1 13
5 21 13 29
43 34 50 35
231 247 239 195
9 1 37 236
9 1 10 2
56 4 40 48
10 2 14 6
8 224 12 195
15 222 7 51
14 6 58 237
10 2 62 9
11 27 3 30
6 24 220 14
51 60 50 44
46 5 33 49
2 240 232 248
4 12 10 28
8 33 44 36
225 36 233 44
221 213 197 241
59 15 43 35
37 58 50 57
10 2 1 18
37 53 45 61
38 46 48 42
61 53 49 45
9 1 10 2
34 52 42 60
193 229 201 237
3 11 15 7
7 11 15 3
47 63 202 246
30 22 207 23
10 2 26 18
11 27 19 3
1 9 17 25
47 39 255 9
6 14 2 30
3 11 19 7
6 22 30 14
237 42 41 56
7 4 12 15
201 247 209 235
26 18 10 2
41 9 5 33
13 5 9 1
235 227 56 48
8 24 48 56
240 248 176 224
11 3 7 15
5 13 21 29
30 2 216 29
219 203 200 211
10 26 2 18
236 239 136 200
38 59 54 57
8 4 3 11
59 51 35 43
9 1 10 193
1 13 2 10
4 12 195 211
6 14 30 192
212 196 220 204
37 45 53 228
235 4 227 207
59 33 41 53
45 46 38 35
39 200 53 47
8 4 12 3
59 223 199 207
234 205 196 226
53 45 54 61
41 33 49 57
197 221 223 251
38 54 46 52
8 225 233 12
10 2 15 23
8 11 3 36
191 62 167 222
53 12 17 4
10 2 6 26
6 2 14 10
45 37 38 46
222 214 206 198
7 23 31 15
228 236 204 207
54 38 14 13
11 202 2 210
4 12 8 24
18 19 3 34
6 14 22 30
15 7 31 4
37 45 152 240
218 11 14 202
3 11 27 24
8 244 252 228
197 233 205 225
12 4 15 1
36 44 53 52
242 250 197 213
193 194 209 210
201 193 237 217
13 5 29 21
226 234 250 242
212 3 204 196
8 24 236 16
202 39 201 218
58 57 32 204
52 60 61 53
27 11 3 19
20 29 4 12
7 15 23 31
37 21 3 45
30 38 29 21
57 41 49 33
8 24 11 3
41 8 57 20
56 49 57 59
21 231 226 5
6 5 22 14
227 235 243 223
44 47 169 185
12 4 28 20
252 9 216 25
26 15 10 18
53 54 41 33
174 26 3 11
10 26 6 22
2 6 22 18
27 11 24 207
3 9 61 231
33 224 232 34
55 57 63 41
51 23 59 31
2 10 18 14
22 30 6 14
205 197 221 213
10 2 35 9
255 5 247 41
13 29 5 21
42 56 34 32
196 232 224 204
237 229 193 129
1 9 4 2
6 63 14 60
24 8 16 227
5 13 29 21
46 38 62 39
45 37 61 196
7 23 15 11
1 9 5 234
1 9 5 13
5 13 9 6
8 16 24 5
8 11 3 24
3 11 6 39
26 2 18 34
33 34 41 42
46 183 180 167
253 254 238 246
45 37 39 61
44 36 13 5
3 11 31 15
250 242 234 134
15 7 23 43
25 9 17 1
5 6 44 34
4 9 12 20
12 4 7 15
35 47 53 235
2 18 14 23
53 37 45 38
41 57 49 33
23 197 198 213
8 11 24 3
9 25 21 13
22 30 248 168
243 227 179 176
254 56 227 235
224 196 232 132
143 199 255 207
13 29 5 9
34 33 6 50
207 151 249 255
205 221 233 225
4 12 20 28
12 4 7 15
141 142 157 235
22 30 6 14
18 2 26 10
238 210 202 218
31 15 23 7
43 59 35 51
57 39 45 61
194 130 230 182
6 19 5 10
12 4 20 28
33 41 57 214
235 227 199 251
224 232 196 225
12 4 9 45
1 17 9 5
3 228 192 236
3 11 47 7
9 1 25 17
38 46 232 224
6 14 22 30
56 48 40 54
54 32 46 38
42 56 34 58
8 3 11 24
38 192 216 208
52 60 41 55
11 7 15 3
196 3 195 226
36 52 53 54
226 12 225 242
53 54 59 61
28 56 24 40
13 5 14 6
1 8 9 242
3 15 19 11
8 24 27 11
196 178 221 162
8 17 1 217
52 243 221 60
54 38 10 62
14 2 30 10
58 231 51 2
12 4 28 20
15 7 3 11
33 41 57 34
12 4 217 201
7 3 15 11
14 238 249 18
33 252 234 206
196 240 248 204
6 22 14 30
5 13 33 1
8 1 4 24
3 201 193 11
14 6 30 12
7 11 3 15
12 28 4 20
13 5 9 29
32 29 56 38
206 14 15 204
12 28 4 21
234 214 29 226
222 214 242 35
224 232 239 49
8 24 16 13
8 12 36 4
11 3 193 201
34 206 42 230
53 192 128 61
10 2 236 228
36 44 52 60
17 25 44 204
29 13 30 21
46 54 38 62
3 11 19 27
9 1 17 25
14 6 56 4
33 58 57 49
194 209 210 193
2 1 132 241
251 9 56 17
15 7 31 23
25 3 11 17
55 63 53 49
14 11 6 3
10 9 2 45
15 7 54 46
11 27 23 7
5 25 1 9
227 207 199 187
215 199 176 210
222 196 219 44
207 223 199 143
13 29 5 21
46 38 45 54
243 240 53 248
38 46 37 45
5 13 8 1
3 2 15 10
3 11 19 8
9 1 17 4
11 3 8 27
13 5 29 21
3 7 11 4
60 44 53 13
8 46 38 213
10 46 2 38
11 192 195 6
18 26 209 25
33 57 17 41
193 137 209 227
45 52 37 55
6 10 22 26
8 46 38 44
45 61 32 37
14 6 5 13
60 44 52 36
3 2 1 6
30 128 232 136
50 58 42 29
54 38 62 46
253 245 237 209
23 31 7 15
9 1 25 17
210 194 209 37
16 24 8 1
9 25 1 17
12 4 200 208
243 142 215 251
36 44 37 53
46 38 58 33
248 240 220 212
45 37 9 46
242 222 178 252
205 197 202 233
2 46 38 52
233 205 197 225
4 12 20 28
37 53 45 38
17 25 51 35
45 34 61 33
32 50 3 34
40 214 32 222
247 219 147 34
16 8 24 1
206 198 234 226
4 12 26 202
8 24 16 4
1 9 38 232
195 203 211 192
32 35 40 43
43 53 35 59
3 11 7 15
8 24 11 16
53 61 45 37
239 231 195 167
23 31 7 18
251 235 248 227
15 12 7 4
52 42 60 36
46 62 54 38
25 17 8 9
3 11 41 8
6 14 22 30
7 3 15 11
29 13 211 25
244 236 252 12
215 199 164 196
6 13 7 14
47 44 1 63
3 34 42 50
14 30 54 198
237 253 238 254
12 10 28 9
3 50 58 34
27 11 26 3
42 41 33 34
44 46 62 38
5 33 41 34
23 7 239 38
10 2 14 6
2 10 26 18
62 46 15 48
2 1 10 9
38 54 46 17
35 32 44 164
207 235 151 135
2 18 6 14
200 45 216 61
17 1 13 5
49 57 33 59
60 44 42 52
7 15 23 201
206 2 198 1
17 20 29 4
21 13 29 5
15 237 231 31
7 3 15 11
4 20 12 48
2 14 22 30
11 27 8 24
206 222 198 240
37 38 46 45
1 13 9 225
8 36 44 130
39 55 61 47
1 2 9 10
197 5 206 21
3 11 15 31
1 9 13 17
148 151 132 135
54 38 2 18
254 238 194 246
5 13 1 29
24 17 211 219
216 200 208 192
37 28 45 20
45 46 206 198
45 37 61 53
43 35 40 32
204 240 212 140
4 12 13 5
15 7 241 249
24 8 38 46
2 10 1 18
41 33 34 42
14 6 13 5
247 211 219 195
10 9 2 255
15 59 56 23
48 52 32 42
233 225 205 249
14 233 56 249
1 9 17 25
234 226 225 198
247 255 5 211
26 18 3 11
11 3 34 214
5 33 13 7
218 210 194 202
192 236 228 200
247 10 255 231
9 1 5 13
10 45 26 9
251 227 243 235
17 25 9 56
44 36 11 60
248 220 212 240
37 45 38 46
52 38 36 46
3 11 27 19
183 247 175 217
231 239 203 195
235 221 213 222
238 230 254 246
220 196 224 248
9 1 11 13
57 41 33 58
43 40 53 54
5 13 8 29
5 13 57 41
4 12 20 28
12 4 15 28
243 240 227 215
39 38 47 46
6 47 39 238
14 6 13 2
202 238 230 254
206 222 214 198
236 228 200 192
11 8 5 3
9 12 221 226
53 54 227 251
174 40 41 190
7 15 23 12
227 213 235 251
6 14 5 208
14 6 2 30
11 3 27 19
193 209 194 248
3 11 27 19
11 3 27 19
24 8 39 47
26 18 27 19
45 23 7 46
251 243 248 197
214 222 221 213
32 7 15 35
212 11 3 220
15 7 23 31
11 3 27 47
11 3 7 15
12 28 31 15
41 33 42 255
42 41 34 33
56 48 40 42
4 40 6 3
221 206 226 222
13 5 6 14
204 196 228 232
6 34 55 5
11 3 14 15
3 27 11 19
21 29 5 57
17 25 9 1
6 14 10 2
203 231 195 239
204 196 224 232
228 236 192 200
5 13 21 29
231 247 255 239
196 199 204 58
8 24 16 28
215 204 212 199
231 239 236 28
6 14 11 30
41 31 15 247
62 32 40 54
56 32 197 14
10 193 173 9
192 59 43 51
39 55 47 22
45 9 1 17
12 4 28 56
199 227 23 243
46 62 230 45
143 159 61 53
221 205 233 225
12 4 15 7
238 3 254 129
50 34 33 49
40 32 56 166
45 13 5 37
55 39 47 35
18 53 26 45
54 38 46 60
8 24 16 33
13 5 17 9
4 20 28 12
211 231 239 195
216 200 192 252
215 199 212 223
220 204 199 207
37 45 53 61
37 53 45 61
235 199 227 207
196 212 224 204
45 12 37 53
1 9 17 25
230 194 139 202
236 239 228 231
53 2 233 61
252 244 255 228
6 30 22 18
193 194 226 34
238 230 237 254
237 229 14 201
222 214 57 49
31 23 15 7
21 29 235 207
48 46 56 221
230 238 58 39
47 37 31 15
233 234 225 226
11 15 2 10
231 247 60 50
53 135 62 54
52 36 39 53
44 11 8 36
206 234 198 205
21 5 230 20
19 41 33 16
44 36 60 58
234 226 216 208
15 31 238 23
207 204 196 224
23 4 20 11
45 53 32 40
39 36 52 55
251 243 227 13
241 249 225 233
42 34 58 36
3 11 27 8
240 248 243 251
2 10 37 38
7 15 23 31
11 3 15 7
58 13 5 32
32 40 48 4
6 33 41 34
50 34 9 201
7 23 30 4
2 18 3 10
227 235 199 207
46 8 41 38
44 60 36 52
13 5 29 4
7 3 15 11
14 6 228 22
57 59 42 41
24 16 19 8
210 239 255 218
25 9 17 1
25 5 21 13
239 236 231 3
24 8 16 44
41 57 33 5
45 37 42 34
14 30 6 22
203 195 239 200
59 43 40 56
178 226 242 63
239 175 216 231
14 6 30 58
236 200 228 252
44 36 52 60
2 235 251 227
38 46 62 54
11 202 194 3
249 237 253 34
247 255 17 231
6 14 33 34
9 11 3 1
17 25 9 5
3 11 7 8
4 12 28 20
39 47 11 3
54 62 52 53
58 6 50 34
33 19 34 3
17 25 21 29
25 17 140 1
239 231 203 195
224 227 232 196
18 26 2 10
5 1 13 6
29 21 8 5
2 10 6 18
7 4 8 23
2 3 10 19
59 51 48 35
44 36 47 39
203 165 219 229
45 47 61 55
8 4 12 230
57 59 43 58
224 232 38 46
3 7 11 23
4 28 12 56
13 8 5 29
29 13 5 21
13 5 29 9
196 212 199 21
21 199 22 230
204 232 196 224
15 7 3 11
5 9 1 198
8 24 16 11
236 239 216 252
30 22 26 14
231 228 239 204
60 52 53 44
56 48 40 54
13 215 248 243
57 33 60 41
4 223 199 207
8 230 44 238
11 3 14 6
10 26 18 2
41 46 54 57
20 28 12 8
8 12 4 24
3 11 7 15
2 10 6 14
203 2 10 239
6 2 10 14
6 210 209 18
29 21 30 22
255 247 219 239
216 239 231 236
194 202 201 210
3 2 11 10
15 7 12 23
7 228 15 244
11 3 27 19
8 24 16 36
4 12 8 7
16 24 197 17
25 9 17 1
10 2 18 26
214 150 198 222
33 8 41 16
21 5 13 29
56 38 54 40
57 41 8 33
36 53 61 44
37 45 46 38
8 24 16 29
10 48 193 209
251 23 235 243
42 41 34 33
10 2 35 18
255 247 219 231
57 13 33 41
22 6 55 14
13 14 5 17
29 16 21 8
2 1 10 9
15 7 23 31
235 232 227 224
8 238 16 24
57 41 8 39
8 24 4 16
222 195 183 45
233 141 205 29
7 15 42 51
4 60 16 20
234 7 15 202
6 14 22 40
13 29 5 21
56 42 34 58
6 41 14 170
44 63 60 47
240 248 223 251
31 15 26 160
196 199 207 176
243 227 235 251
3 37 19 53
6 14 2 30
14 6 10 2
18 2 10 22
2 18 235 251
11 8 3 234
234 233 250 242
3 11 7 15
5 13 6 30
8 200 13 29
8 244 202 252
193 9 53 237
14 6 54 30
24 8 16 27
196 204 212 248
198 234 229 226
30 22 224 14
44 36 47 60
19 27 16 11
216 208 200 192
39 6 47 14
9 1 10 2
39 47 236 36
238 230 202 174
10 2 212 196
197 161 213 233
3 11 214 55
195 208 211 172
225 241 233 249
4 12 8 28
1 9 239 167
206 222 238 130
236 223 227 135
250 200 255 216
198 207 214 226
195 231 228 247
25 17 18 9
62 51 43 26
46 38 54 21
43 35 33 49
42 56 40 58
250 242 249 3
14 6 30 22
35 53 43 12
33 41 38 46
217 209 201 251
45 46 37 38
58 57 42 32
34 33 52 11
1 8 9 24
201 193 209 229
4 12 20 28
193 209 201 217
62 46 32 36
9 10 1 2
15 14 3 2
27 19 138 11
3 15 7 11
57 5 13 49
5 13 29 21
208 216 10 9
220 212 243 143
60 44 52 8
202 194 11 3
14 6 30 22
9 1 38 54
5 13 29 33
34 35 33 32
11 9 1 39
14 6 30 18
6 14 33 238
39 1 17 43
225 198 197 233
138 3 175 238
173 189 181 174
250 222 209 203
224 240 232 2
34 232 240 224
206 205 198 197
15 31 7 23
1 202 17 2
