# MaxFreqExtractor features
# Channels: 2
# Frame size: 1024
# Hop size: 512
# Sample rate: 48000
# Frequencies per frame: 4
248 57 198 220
7 10 23 14
2 18 61 62
33 49 34 50
43 59 253 236
40 2 45 14
5 33 49 6
7 3 2 4
60 44 13 14
34 8 6 11
241 225 211 195
15 207 223 7
200 46 216 228
35 2 51 61
198 197 226 225
14 6 13 10
223 207 1 199
12 4 32 14
6 26 18 216
53 13 54 253
53 61 37 43
7 23 15 31
44 60 47 63
37 45 63 8
8 134 198 24
9 1 10 2
8 4 9 24
163 7 43 45
231 239 255 247
5 13 21 29
1 9 243 221
12 228 26 235
9 13 5 1
30 18 22 26
31 37 23 15
53 54 38 61
13 31 29 5
19 221 27 213
6 54 23 62
20 213 4 48
46 38 48 32
59 43 51 44
234 226 170 242
199 196 33 41
37 46 38 45
58 42 50 34
16 8 246 33
15 10 12 7
10 9 26 199
15 161 483 12
185 192 186 200
57 6 58 34
27 26 232 197
46 38 62 51
6 63 18 5
207 223 138 204
16 12 61 45
10 2 26 14
10 2 9 1
11 3 58 14
2 10 6 14
10 38 2 239
201 245 237 229
14 6 10 30
37 45 38 46
222 206 248 205
48 51 56 32
59 43 45 51
181 11 255 165
13 9 17 5
61 4 62 12
1 5 13 9
139 8 239 231
4 236 28 13
54 62 53 61
232 235 8 141
5 13 254 253
4 12 8 13
8 24 16 44
203 195 200 192
49 57 53 33
38 46 192 60
60 44 53 50
14 2 6 10
5 13 1 9
4 12 8 20
224 1 17 192
203 136 200 195
24 27 39 19
35 43 42 58
47 19 63 53
12 44 4 8
253 237 229 254
6 5 3 56
43 59 19 40
7 4 8 12
208 35 43 216
253 237 254 245
4 56 12 208
40 32 189 48
8 36 24 16
47 44 63 52
43 4 59 20
41 38 54 46
6 209 22 63
13 5 227 21
13 60 5 52
3 19 9 27
201 202 194 193
43 40 35 32
32 40 5 288
43 59 40 35
32 16 234 40
217 37 43 53
36 52 44 54
8 207 16 223
7 8 27 11
23 202 7 31
213 50 133 12
247 31 159 211
245 38 28 45
250 233 249 234
49 57 40 33
53 37 59 217
203 195 255 251
55 199 63 36
4 233 12 249
43 59 34 35
1 9 2 17
4 12 45 20
8 24 16 11
4 20 12 7
7 15 4 23
1 9 8 13
11 15 3 7
6 5 13 14
22 30 6 3
58 203 202 42
52 36 62 60
60 44 36 236
10 46 2 62
52 8 36 44
8 206 198 16
10 2 228 236
12 8 196 204
8 11 12 46
234 242 250 226
197 213 205 221
45 37 199 235
12 20 28 4
6 14 5 206
45 37 53 51
33 41 34 49
8 24 4 12
15 12 7 209
234 226 242 250
213 6 205 197
45 37 61 53
9 25 17 1
4 20 12 28
7 11 15 3
14 6 13 5
5 8 13 21
24 28 16 57
15 7 4 12
234 226 242 142
6 22 14 62
4 12 7 20
15 7 62 46
12 31 4 20
199 207 45 215
12 8 192 4
14 197 205 30
45 61 46 37
140 248 232 156
234 142 158 41
6 237 14 5
178 198 242 234
54 38 46 44
11 23 7 224
34 44 48 38
226 178 250 242
251 248 177 232
10 15 14 9
52 47 168 35
49 45 226 46
5 21 192 22
250 234 50 245
14 13 1 2
54 7 53 31
23 198 39 226
170 169 241 163
196 199 212 215
4 7 12 20
197 198 8 226
2 10 30 14
13 199 14 215
63 14 195 6
35 3 51 43
42 35 3 43
39 47 234 35
2 10 35 54
11 15 27 228
12 4 28 20
205 197 198 206
140 204 15 156
143 249 214 159
60 52 47 44
226 234 225 206
197 221 36 205
9 1 2 25
171 168 214 194
30 14 22 38
15 7 31 23
15 12 4 7
234 197 250 233
6 5 60 22
16 48 32 9
52 36 60 44
216 195 203 192
212 52 42 55
15 170 62 7
7 15 23 31
40 56 32 58
62 46 47 38
53 241 35 37
250 62 242 46
40 56 1 62
19 233 205 225
197 198 242 205
23 20 4 7
3 22 228 15
7 15 23 31
7 15 31 23
30 6 14 22
206 198 205 222
13 14 57 29
8 24 4 1
45 46 44 61
13 5 29 14
197 213 30 177
1 9 17 25
7 23 31 27
44 40 5 13
8 24 16 206
12 7 232 15
10 7 15 2
48 32 207 35
8 16 24 17
4 12 8 43
10 2 18 26
52 8 60 55
207 237 58 227
1 9 17 5
3 19 11 27
237 229 225 201
4 12 8 20
9 1 13 25
51 231 228 19
11 6 27 22
235 251 243 227
216 244 144 147
1 207 163 9
242 226 225 241
249 241 213 233
220 212 1 204
171 187 168 207
212 221 43 243
14 13 5 6
39 47 63 44
61 45 37 53
33 34 35 51
4 46 48 20
4 53 37 20
43 2 35 10
10 2 14 18
4 12 15 32
4 1 16 9
207 43 35 223
198 226 231 239
8 4 12 228
5 13 240 196
239 231 195 36
8 16 24 1
2 10 18 26
171 187 251 235
8 3 213 221
8 24 11 16
3 11 8 245
8 1 16 31
8 60 44 52
15 57 41 7
2 6 10 14
6 14 5 13
4 226 234 12
8 12 4 24
42 34 58 14
45 61 37 32
8 24 11 3
11 3 8 14
14 6 47 39
13 14 6 5
236 192 228 58
4 12 56 48
7 15 23 3
2 10 1 6
2 10 7 18
6 14 63 58
13 249 5 241
10 2 18 26
231 192 228 236
3 11 199 254
13 5 6 14
8 5 44 60
62 60 44 39
196 199 203 197
46 10 62 26
7 15 11 27
15 7 12 4
36 52 39 53
21 3 29 203
9 25 221 17
198 214 8 197
47 39 44 63
6 22 14 30
203 206 219 240
18 54 26 60
31 7 15 23
2 18 10 26
9 25 1 17
35 51 32 43
229 22 30 219
28 20 12 4
189 149 133 197
234 54 38 53
254 253 246 237
6 15 22 31
4 18 26 12
41 42 13 15
9 1 25 10
44 60 47 50
227 224 132 135
208 192 195 211
163 217 209 179
55 52 59 37
1 17 9 8
236 228 204 220
59 54 56 62
10 2 239 26
13 14 5 6
45 37 195 2
40 228 32 43
14 30 6 22
11 3 31 27
195 211 203 219
60 37 38 44
5 6 16 14
63 47 55 39
249 241 213 225
15 7 30 23
16 24 8 9
3 11 27 19
7 250 8 23
52 60 8 15
18 26 10 2
11 27 3 19
38 37 46 54
229 245 37 45
40 32 56 35
177 241 249 233
249 241 242 250
39 47 55 53
22 30 14 13
57 27 58 241
13 5 15 227
13 14 6 5
37 1 39 53
44 60 52 36
8 13 50 5
1 7 9 2
52 60 36 44
13 5 29 1
2 236 228 252
243 227 251 240
195 231 239 6
8 33 50 5
9 1 10 13
38 54 60 44
1 9 17 25
60 44 47 52
13 5 1 57
10 2 38 46
13 5 176 179
239 231 203 247
11 6 54 14
14 6 30 197
33 49 57 51
133 246 249 225
10 2 50 239
14 30 6 237
8 11 60 24
237 229 11 52
14 2 10 1
12 4 1 9
60 52 44 8
37 45 1 239
200 192 236 10
1 9 8 5
60 52 44 36
17 1 5 25
2 10 18 26
13 25 9 14
1 37 45 5
8 16 24 5
37 195 211 9
236 228 244 252
13 1 29 5
36 52 37 53
33 49 16 17
10 2 18 37
6 5 13 22
37 48 56 45
12 8 5 28
5 227 223 13
2 10 9 1
147 235 227 1
36 203 200 228
8 33 24 57
10 2 26 45
5 13 29 1
45 37 53 1
60 52 44 5
55 239 255 199
192 195 46 10
226 225 96 153
51 48 35 32
84 97 114 28
42 51 35 26
56 204 210 232
208 61 223 192
3 19 27 169
214 213 25 21
171 209 199 237
5 21 25 17
8 6 22 24
61 45 20 53
33 34 50 23
28 20 12 21
25 17 187 9
216 200 246 230
29 21 13 5
216 200 252 213
214 213 40 32
3 60 52 34
22 21 30 6
220 62 42 41
27 221 197 141
252 255 26 244
6 14 173 189
62 54 224 63
207 42 223 58
46 45 52 38
6 21 22 5
1 196 2 212
1 16 175 17
12 20 28 4
17 213 57 41
230 229 246 130
38 40 46 18
44 60 36 47
47 53 37 54
12 25 15 53
229 22 65 240
61 45 46 62
49 33 57 55
24 12 8 212
22 6 14 18
48 56 171 168
85 33 50 34
6 22 14 2
5 21 6 13
51 39 55 24
61 45 60 44
185 165 33 34
125 97 113 140
21 29 12 22
49 33 48 47
21 5 145 212
218 217 184 56
223 207 47 63
186 170 185 31
231 228 239 49
4 52 12 5
9 25 49 57
4 20 12 243
5 6 22 63
56 40 48 32
50 58 34 61
45 61 36 60
1 5 17 13
60 12 44 63
9 25 5 6
51 60 21 172
227 152 155 144
200 203 216 166
47 63 174 16
37 61 45 53
11 19 16 3
32 221 35 53
3 11 19 234
30 14 22 6
2 50 34 58
7 46 35 236
13 5 29 21
1 5 9 6
38 224 46 37
5 13 8 57
8 3 39 59
3 11 6 51
54 53 38 37
230 228 238 229
6 14 5 30
8 5 1 9
3 11 19 27
4 8 12 9
8 44 36 62
8 44 60 36
8 13 5 24
8 36 44 4
47 41 9 223
205 1 206 12
56 58 40 57
58 59 53 39
241 130 53 185
9 45 28 12
28 12 20 4
14 6 5 13
228 236 231 239
247 202 49 255
235 251 232 236
175 221 205 142
209 193 203 139
2 201 168 184
5 6 13 22
184 232 168 212
45 37 59 61
49 33 57 41
144 128 40 41
32 142 48 158
219 34 190 174
60 202 2 44
185 186 25 169
52 8 49 253
227 224 37 243
61 45 62 46
24 8 27 16
28 12 205 221
5 34 13 9
16 52 24 45
5 13 6 14
53 201 217 202
46 252 6 236
18 210 61 26
33 49 57 41
42 58 34 236
46 45 38 62
227 1 8 37
8 24 41 33
14 6 30 22
19 15 27 245
45 46 9 61
8 205 247 49
201 37 14 13
50 49 34 48
187 243 227 13
236 228 172 200
251 243 10 227
10 231 239 2
9 25 13 29
1 2 9 10
212 16 204 242
5 1 9 13
8 192 60 228
227 9 235 243
2 10 53 38
5 13 9 1
2 10 6 224
5 13 34 58
37 38 10 53
228 162 13 36
56 1 227 9
192 214 208 195
212 196 5 4
37 53 200 60
207 199 24 57
10 2 45 26
13 14 5 6
49 33 202 218
239 236 13 228
9 184 5 6
49 57 50 58
248 251 232 235
9 34 50 132
20 28 23 4
249 186 181 243
45 25 37 38
229 247 244 5
186 46 5 170
199 9 215 45
50 34 58 12
13 4 5 29
2 1 18 10
5 13 21 214
1 5 9 13
196 212 61 32
143 159 50 255
216 132 61 166
37 49 33 195
60 44 38 202
239 14 56 236
212 202 215 196
195 211 45 61
2 23 208 7
241 242 250 249
52 36 61 212
49 57 35 44
2 1 14 243
41 11 42 27
25 26 221 18
30 1 9 44
50 192 52 200
1 40 56 43
1 9 25 17
63 30 27 55
8 16 24 11
5 13 254 158
22 30 29 13
50 58 163 171
46 167 62 175
37 26 45 6
8 24 16 1
231 239 228 247
194 202 210 146
8 42 11 24
7 15 23 47
2 10 51 35
56 49 32 201
53 13 29 45
1 2 10 45
174 46 181 173
18 98 186 200
24 192 210 242
195 231 239 208
61 45 10 26
25 33 17 9
212 196 215 190
239 195 231 9
53 61 200 241
61 53 45 60
1 9 17 25
1 9 13 207
44 255 36 60
180 218 252 164
31 15 207 176
216 203 152 139
53 61 45 54
16 41 42 58
45 37 61 38
147 144 128 131
156 159 52 140
195 54 24 211
13 29 21 53
235 248 251 232
26 18 214 222
17 25 179 209
166 28 46 45
172 17 18 188
251 235 28 25
25 9 26 192
25 181 223 8
17 1 9 25
13 14 5 243
225 205 221 197
55 36 44 52
205 235 199 251
29 30 5 13
18 253 134 237
15 7 41 31
27 11 19 3
21 22 6 9
167 255 183 239
32 35 224 48
137 153 237 145
164 198 167 175
34 50 42 33
47 39 44 36
7 15 240 204
13 5 160 232
205 197 221 213
3 11 27 19
42 252 254 236
17 18 1 185
169 213 142 214
41 42 48 63
186 192 250 185
28 12 248 20
49 33 50 147
239 27 8 11
185 186 170 169
49 203 253 13
5 13 8 4
6 22 5 14
4 20 28 12
33 49 34 50
58 42 41 50
14 13 30 29
243 227 131 154
3 13 31 59
30 6 193 22
234 134 250 141
26 19 27 10
231 496 228 226
25 6 9 26
49 58 50 57
197 198 251 243
48 56 32 25
152 226 155 131
219 232 14 184
9 1 17 25
34 50 3 204
198 147 155 139
210 242 194 199
247 151 16 36
242 138 226 234
239 151 120 236
224 146 205 97
32 46 62 45
183 210 35 215
111 27 206 222
39 36 47 57
12 4 8 16
14 13 6 5
239 231 236 215
8 5 200 33
5 13 21 29
58 50 231 1
241 249 225 57
13 5 29 21
8 12 4 24
18 26 6 14
180 183 164 175
195 231 45 140
24 247 8 17
246 209 245 230
209 245 193 217
13 5 29 8
50 49 231 203
16 24 8 12
5 1 2 9
226 208 43 242
22 165 31 21
1 9 12 4
33 50 49 58
4 20 25 158
61 49 57 45
11 27 2 181
61 45 147 59
6 14 22 13
132 203 20 4
57 41 58 49
21 13 5 22
1 48 2 227
47 6 44 39
34 42 50 58
222 18 25 26
133 44 36 27
14 30 6 22
6 14 2 18
31 15 28 46
44 36 54 39
23 33 31 142
197 213 241 205
234 242 226 170
1 17 9 18
52 12 224 60
63 47 221 55
10 2 18 26
5 13 51 48
10 195 203 211
31 23 28 15
205 197 2 221
200 192 23 31
1 17 241 9
60 44 52 8
57 41 33 55
10 2 60 36
57 13 5 1
10 60 45 197
253 214 160 198
14 48 22 24
222 230 166 174
33 200 203 216
6 22 21 45
15 7 31 19
45 55 60 52
2 17 18 10
35 32 43 40
225 21 233 29
60 34 63 43
7 15 23 31
51 35 37 45
229 137 45 230
39 36 52 60
34 42 50 33
44 60 36 16
3 27 11 7
58 57 50 34
60 52 32 40
8 13 5 57
13 5 29 1
9 1 25 17
197 205 221 213
231 228 239 214
43 36 35 23
25 9 17 1
26 45 10 59
207 234 46 179
167 183 239 231
52 34 59 42
17 208 25 192
233 15 231 249
12 8 24 251
10 60 2 1
33 5 13 4
5 13 29 21
10 2 46 45
57 41 49 45
195 204 167 220
48 51 63 38
36 214 222 198
245 229 246 230
55 39 30 36
6 5 22 14
9 1 4 20
60 52 38 54
45 37 55 5
218 236 254 228
5 13 6 21
203 219 195 200
1 9 25 17
37 45 10 2
5 200 13 29
1 9 10 2
1 32 56 9
4 12 20 28
7 23 51 35
31 15 7 59
5 21 13 29
6 9 1 5
231 228 35 236
13 5 14 29
9 1 2 10
5 8 44 60
15 31 7 23
2 43 10 35
9 1 25 17
202 238 230 218
246 254 237 229
18 2 9 131
254 253 54 40
1 9 25 17
48 32 35 40
5 8 13 29
12 8 15 4
9 25 17 1
10 2 37 195
233 13 206 5
2 1 10 14
13 5 29 60
1 9 17 37
8 12 52 4
57 49 5 37
10 2 228 236
33 13 243 5
203 239 231 195
5 33 1 13
6 2 10 18
5 13 60 29
1 9 17 25
8 60 44 12
5 13 1 9
247 231 195 128
49 33 31 241
47 63 32 56
43 35 185 59
6 5 47 21
168 184 211 232
20 23 5 4
27 208 11 158
51 47 48 35
50 58 34 33
62 161 16 169
232 235 216 248
249 11 233 225
173 189 196 174
237 147 238 208
245 229 246 151
33 19 5 36
210 194 55 193
35 51 65 43
249 233 250 225
214 206 198 205
194 249 182 223
62 46 43 61
63 60 47 33
211 58 195 225
192 200 208 3
231 247 239 228
23 7 2 18
10 30 26 2
9 10 1 2
34 50 58 22
2 254 18 215
253 237 229 217
11 27 191 8
60 179 63 47
62 58 43 57
8 24 20 4
19 15 3 253
228 6 22 52
12 15 4 7
59 43 56 57
152 136 252 244
227 224 243 240
1 8 24 17
14 10 196 168
