# MaxFreqExtractor features
# Channels: 2
# Frame size: 1024
# Hop size: 512
# Sample rate: 48000
# Frequencies per frame: 4
45 61 37 53
33 49 57 41
2 56 148 18
150 151 134 206
38 35 46 37
213 197 225 233
206 214 198 222
170 12 9 8
1 9 4 25
13 5 32 29
201 193 244 57
7 221 15 42
50 27 58 34
167 175 218 57
163 217 218 202
46 45 38 62
24 27 1 58
13 167 5 236
9 1 25 227
46 62 54 5
24 16 8 57
5 13 240 248
1 54 17 9
6 5 14 13
54 38 53 62
9 1 17 25
175 167 191 236
1 9 16 24
53 61 54 45
9 1 17 25
212 196 240 220
53 61 15 37
40 32 43 254
57 41 33 13
33 49 57 41
239 231 236 255
208 11 27 192
2 1 6 13
9 1 4 10
1 232 160 2
179 251 54 23
5 13 8 9
5 34 196 240
13 43 25 40
3 35 32 211
38 54 52 53
34 50 42 36
175 231 247 183
37 56 55 45
38 1 54 50
9 1 16 2
135 231 207 132
14 27 22 61
5 13 21 6
13 5 29 21
5 9 13 29
43 197 213 59
40 58 200 56
180 216 164 200
34 50 225 241
46 15 38 62
206 221 205 222
15 7 23 51
234 233 20 250
7 55 15 52
252 149 206 236
15 2 45 18
7 23 15 4
221 197 198 205
15 7 31 23
34 33 6 42
15 18 31 54
17 13 34 5
52 221 190 189
27 24 19 16
28 12 4 1
10 18 2 26
205 34 252 167
9 25 17 41
62 52 36 54
21 5 13 29
32 255 203 219
242 170 250 226
5 6 1 257
211 6 7 144
7 18 43 23
234 242 250 226
3 27 19 11
14 42 32 208
12 179 23 176
183 180 34 201
12 4 160 143
140 188 211 419
7 15 12 4
196 178 191 201
46 15 7 38
241 197 213 177
15 7 35 51
7 23 31 15
198 206 222 221
31 23 15 7
213 250 198 249
7 15 23 31
221 205 31 222
2 10 18 62
2 43 432 35
214 206 213 2
30 6 13 197
26 10 11 250
8 206 164 24
7 15 11 23
56 15 12 40
222 157 252 206
7 23 15 37
20 28 12 197
11 27 3 24
249 225 241 233
15 7 31 23
4 20 12 28
7 23 15 41
6 20 46 23
250 10 255 51
9 25 1 10
46 24 62 33
5 6 1 2
2 10 18 26
5 6 13 41
37 38 239 53
60 44 33 59
13 5 14 57
195 192 2 62
232 235 204 222
247 244 1 183
18 10 187 26
191 223 204 224
15 43 56 40
198 233 225 197
247 193 15 43
56 58 161 32
32 7 51 35
206 205 35 225
226 225 158 157
29 13 5 30
5 12 13 53
10 18 2 30
30 60 53 44
45 53 61 39
242 226 48 217
53 54 255 37
22 20 30 24
16 53 54 60
53 255 191 167
163 171 187 205
54 38 62 46
16 24 9 8
213 54 62 61
246 221 205 171
24 16 54 62
19 50 58 27
1 9 17 197
246 230 193 62
16 24 50 27
27 3 19 11
58 163 57 50
163 201 193 227
27 24 19 16
3 11 27 19
213 163 221 15
54 15 62 38
27 19 3 16
47 6 167 251
19 27 15 3
43 40 213 48
11 3 19 27
231 24 8 16
228 216 192 236
61 43 35 62
6 14 11 15
13 1 251 5
196 9 212 5
13 204 223 207
204 207 223 13
14 220 190 13
14 30 39 55
55 52 39 38
52 36 191 37
175 172 191 188
12 28 236 1
5 21 1 9
5 29 13 21
29 5 13 21
29 5 60 13
5 52 29 13
5 52 176 13
63 35 59 51
55 52 59 35
9 1 37 56
9 1 61 25
1 9 17 25
5 13 1 21
17 1 9 240
53 54 37 140
224 240 232 227
5 6 13 21
60 21 52 44
46 38 54 45
36 9 1 206
37 53 38 55
192 195 231 210
1 9 10 2
1 8 37 4
9 1 17 25
18 1 2 216
251 248 61 215
5 21 6 41
36 59 41 7
43 13 56 40
35 33 49 51
37 53 33 45
61 45 62 46
1 9 17 25
1 9 17 62
9 1 45 17
9 1 25 17
13 21 29 5
13 1 9 5
13 61 29 5
195 206 172 231
40 49 43 50
44 60 52 172
37 53 61 38
233 249 213 241
7 2 23 10
169 20 213 28
15 56 48 7
248 232 20 4
7 23 15 34
221 200 216 222
19 61 45 3
56 250 130 141
180 48 28 219
143 159 7 23
36 52 141 59
186 185 177 6
56 48 185 9
39 59 19 27
219 185 177 241
35 5 43 59
22 1 21 17
43 35 51 59
9 16 13 5
30 22 199 6
56 41 57 59
5 13 35 9
132 224 192 195
41 33 42 56
29 30 14 42
10 51 2 9
42 252 62 5
28 12 227 224
255 33 34 244
12 15 4 24
59 33 234 51
16 4 24 8
206 222 224 170
44 239 211 56
45 37 53 61
55 38 60 52
174 173 52 216
240 225 204 224
7 15 23 54
197 198 223 205
150 135 222 221
40 196 56 48
20 234 59 43
3 26 10 16
59 15 43 7
42 56 58 59
23 15 54 40
34 33 6 43
4 12 20 23
35 42 221 11
22 6 23 31
221 56 48 1
23 20 4 7
4 12 20 185
54 38 46 62
133 141 149 59
59 51 172 56
23 20 31 7
148 59 43 51
54 8 53 225
206 13 198 176
56 40 175 197
148 151 234 250
28 12 31 15
31 49 23 33
213 54 179 62
54 31 38 136
197 221 191 37
41 57 58 42
28 20 12 4
7 15 23 57
208 36 192 10
250 249 222 221
38 205 7 15
201 179 227 163
7 23 31 15
2 10 198 177
15 7 23 59
28 175 198 206
14 22 13 233
198 197 221 213
12 4 221 20
222 40 49 43
192 52 36 28
198 222 214 206
175 183 214 239
213 250 234 198
40 41 32 230
20 251 235 221
15 5 57 13
1 9 17 25
10 9 25 53
58 36 39 57
22 21 231 14
216 200 211 208
15 249 180 250
2 214 142 206
239 231 247 255
1 20 4 17
25 53 9 54
8 16 52 60
15 7 31 35
197 213 205 221
15 7 23 31
225 205 233 241
227 163 235 179
13 224 23 41
10 6 2 1
62 23 46 54
1 225 31 197
2 7 18 23
205 221 213 197
191 188 4 7
226 220 196 193
30 6 18 26
38 9 1 46
1 9 17 25
5 13 9 29
249 13 5 250
24 16 62 8
58 50 19 3
228 231 239 236
9 1 163 146
45 46 38 37
1 9 58 50
5 167 13 53
1 163 179 227
5 19 27 13
9 41 1 24
5 13 212 240
209 29 13 201
50 6 5 13
27 63 33 19
50 44 58 54
9 175 167 48
1 9 17 239
37 45 61 53
2 1 18 10
209 193 254 224
29 13 5 9
5 13 1 17
13 236 17 29
202 194 210 240
39 55 47 52
56 40 43 59
227 39 55 36
4 9 12 7
244 8 188 24
63 17 47 53
5 13 1 27
57 9 1 5
14 19 13 26
16 19 24 27
33 34 16 46
44 47 60 63
27 19 3 11
40 231 167 228
3 19 11 55
38 37 27 24
28 12 31 217
9 16 231 24
1 251 55 45
1 25 9 5
9 13 29 25
13 41 57 29
13 29 5 244
228 200 21 172
63 54 49 38
60 50 44 34
205 213 197 221
15 7 31 23
226 198 214 213
7 15 23 31
205 197 198 221
15 7 43 35
23 20 28 225
15 7 54 23
31 4 20 28
206 214 170 198
12 15 31 4
226 197 163 213
7 4 32 33
44 53 28 61
41 6 42 57
203 199 200 219
197 233 234 198
35 43 62 61
21 199 196 227
17 25 39 161
44 47 36 57
29 13 224 232
8 12 47 63
216 192 250 208
9 25 21 1
2 43 18 59
7 51 208 59
207 196 233 1
10 18 2 50
213 221 214 42
20 28 12 4
15 7 31 214
51 30 40 35
205 221 42 34
15 7 12 40
221 213 206 234
15 7 23 31
198 213 206 221
15 7 23 31
197 213 205 221
15 7 2 23
225 197 205 213
35 7 43 15
7 15 23 4
198 206 251 10
38 23 236 7
15 26 7 6
15 31 7 23
250 22 254 210
45 37 52 200
173 189 165 62
199 207 215 196
19 3 27 43
43 59 27 11
51 35 59 43
96 112 104 120
191 151 172 188
159 151 135 247
204 171 196 163
53 61 45 37
191 188 172 175
148 250 151 179
54 30 171 29
54 38 58 62
11 27 58 19
39 55 63 47
43 59 186 35
7 15 4 23
233 133 149 234
145 146 42 153
35 51 43 32
178 177 162 7
206 234 233 250
205 221 197 233
205 179 213 221
197 205 213 221
72 205 230 229
51 104 107 59
43 15 35 59
23 31 33 7
1 2 32 37
53 12 37 45
1 45 9 37
32 40 48 35
198 26 10 162
29 57 13 41
30 22 14 15
32 54 58 197
54 2 7 236
14 6 30 13
12 26 206 4
30 14 58 225
179 171 187 46
1 17 229 3
53 37 61 45
1 8 22 6
12 15 4 222
187 179 171 163
53 44 36 61
56 48 40 32
4 51 7 59
28 12 4 5
14 6 30 250
186 250 249 170
250 234 242 226
185 177 169 222
178 177 162 206
145 52 129 36
107 4 1 74
107 74 123 5
43 5 59 6
40 56 32 43
9 2 1 10
169 224 15 170
222 198 206 169
32 48 54 28
33 57 41 49
5 13 9 1
7 218 252 244
4 20 40 50
61 53 45 37
57 49 33 41
226 205 206 242
132 171 163 94
6 168 196 204
1 17 9 25
49 222 206 50
187 171 179 221
13 30 14 179
22 8 97 112
45 61 37 53
58 57 42 159
187 171 231 179
231 247 255 144
24 8 16 11
26 2 18 57
22 6 30 196
14 13 5 6
13 47 63 29
6 22 110 230
26 18 35 246
11 153 3 19
227 199 243 210
29 13 21 30
55 107 3 90
55 6 63 52
3 19 52 16
194 210 168 188
188 254 253 194
194 202 188 191
184 19 168 194
19 3 1 11
150 19 238 3
188 36 42 52
60 52 44 22
33 41 57 49
58 50 229 141
43 231 142 158
228 14 247 244
219 40 43 35
43 59 49 35
26 18 2 10
16 6 5 20
43 35 27 19
19 35 27 43
19 7 23 195
50 49 40 56
24 8 16 49
24 16 8 54
26 10 53 37
179 16 187 224
56 232 159 40
11 8 25 42
30 109 125 14
179 187 163 53
56 40 204 9
33 109 41 8
125 109 30 105
179 187 163 171
231 96 228 236
19 50 3 58
22 6 3 19
28 99 31 23
43 59 35 51
55 52 39 215
211 219 208 195
57 41 49 32
61 159 143 53
17 29 21 25
216 57 16 41
175 172 191 167
28 12 20 23
4 22 7 159
92 233 95 89
59 160 50 49
161 217 162 201
49 112 33 92
140 243 62 156
42 197 183 167
114 98 113 212
20 4 107 251
57 30 58 231
21 221 235 248
240 243 224 227
28 20 31 23
29 30 13 127
231 247 13 135
193 15 216 194
5 186 21 185
215 4 58 8
213 205 197 12
41 57 11 43
58 160 19 3
224 243 240 227
183 21 14 13
19 208 175 155
179 207 163 14
184 13 232 5
59 43 196 212
245 229 56 230
22 6 31 30
21 5 22 29
45 60 44 16
60 52 248 235
255 247 252 6
29 13 30 253
52 207 60 204
52 55 63 60
255 16 219 195
2 18 22 6
60 52 36 63
52 55 39 36
219 255 203 195
60 52 30 63
52 60 36 45
52 55 147 8
255 219 195 216
52 60 55 63
52 45 55 37
55 63 39 47
30 22 14 6
22 242 18 2
198 214 61 45
160 176 28 16
28 12 20 24
57 41 23 38
26 179 45 18
25 216 8 24
16 24 19 8
33 49 41 57
167 57 16 32
255 2 247 18
52 16 24 60
31 23 159 54
145 129 201 209
188 194 209 231
238 254 237 23
153 249 183 187
55 63 52 5
31 46 62 245
55 18 247 63
46 204 38 8
52 36 44 60
5 21 13 29
53 54 61 62
2 1 10 239
179 227 243 176
38 37 231 204
252 163 236 45
33 8 60 34
41 57 45 230
211 195 48 57
29 21 22 13
20 23 4 14
93 69 206 94
195 241 211 242
15 12 7 43
10 7 2 15
14 30 6 22
32 58 42 30
4 35 43 7
47 162 226 27
226 198 234 37
4 12 8 20
6 22 14 34
46 15 7 10
253 61 45 53
208 192 59 200
34 50 1 2
125 100 113 109
2 18 131 147
46 62 15 203
29 244 13 20
10 26 9 18
248 25 211 9
29 199 30 215
238 254 148 237
251 137 33 153
40 56 48 51
216 192 208 43
243 240 147 131
236 38 200 228
9 1 25 17
52 50 49 8
13 9 5 29
2 10 38 26
34 50 33 49
36 39 2 37
5 33 13 29
5 6 21 14
41 38 46 62
139 135 226 155
6 154 30 153
52 60 36 202
47 63 148 238
39 55 44 47
154 138 202 137
245 129 229 148
108 111 119 86
66 202 65 154
245 238 229 246
86 72 119 111
202 154 138 218
181 182 166 102
39 36 55 44
2 1 18 10
151 182 166 148
60 44 8 30
1 9 17 8
50 2 49 10
89 73 6 29
63 44 60 55
206 254 246 230
46 45 9 1
172 52 192 188
1 9 2 17
50 8 200 216
1 9 17 5
37 36 52 10
14 30 13 29
79 83 76 107
57 41 13 58
14 13 20 30
202 180 252 236
51 59 95 56
215 242 169 136
254 230 246 199
2 222 1 18
245 246 146 229
44 47 39 63
26 10 35 2
253 182 254 181
43 35 52 181
210 4 245 209
55 23 52 7
18 26 2 40
47 11 19 3
1 35 232 9
40 22 229 237
3 16 19 95
161 129 177 33
227 212 224 196
42 58 41 28
247 231 33 49
22 255 150 26
49 57 171 187
255 68 252 49
200 216 18 193
167 203 220 162
249 221 233 20
28 12 90 197
143 23 7 20
124 108 160 127
45 46 15 31
49 33 50 253
255 252 239 236
73 89 27 64
78 77 183 109
20 249 198 233
20 163 213 197
116 246 100 245
54 31 15 221
31 46 15 26
213 214 221 84
23 7 20 33
17 125 171 245
21 29 5 20
9 1 224 240
141 157 142 34
17 9 25 1
33 13 5 41
14 6 43 33
36 8 16 24
16 24 19 3
45 61 53 24
48 32 53 51
197 179 205 171
35 43 51 18
38 62 54 46
18 2 10 5
183 180 167 197
24 16 8 9
53 37 61 54
6 58 50 229
54 38 62 51
187 184 213 214
203 23 219 27
63 55 39 47
22 6 19 247
187 163 171 179
50 213 171 52
205 38 46 42
16 241 249 233
19 28 61 16
53 37 242 61
10 26 217 152
30 209 201 171
9 17 1 23
13 29 5 21
5 13 41 33
6 42 5 254
46 60 38 37
24 27 16 19
58 32 208 228
4 12 7 32
35 33 49 51
247 62 231 195
58 50 225 161
4 12 20 28
49 171 33 57
31 23 15 7
54 39 38 27
31 166 163 15
172 8 183 24
47 1 44 159
1 13 17 29
1 9 17 12
162 30 39 216
47 39 63 44
28 42 40 32
40 42 56 34
24 255 247 231
22 23 31 6
4 20 23 12
2 18 245 10
199 215 9 10
25 17 27 11
52 60 36 55
52 36 60 55
128 144 159 39
197 205 213 221
31 28 205 23
2 10 59 18
57 42 41 58
197 221 213 205
236 252 244 136
208 238 246 230
9 12 151 24
231 175 37 239
4 12 20 28
214 213 221 149
193 209 194 167
5 21 28 53
20 58 4 42
151 58 1 42
222 206 221 214
20 12 5 28
221 205 167 30
178 122 162 242
28 42 58 133
28 31 51 48
187 171 62 46
49 222 197 175
255 11 239 139
1 9 17 13
6 22 30 5
21 1 49 9
10 2 46 9
1 2 45 9
26 46 10 252
19 238 106 3
19 16 70 31
232 253 235 139
126 222 206 88
222 35 43 206
83 59 43 67
59 43 95 198
195 211 233 249
160 163 179 176
120 254 242 238
123 74 107 73
38 54 245 55
112 19 50 3
112 96 148 175
241 143 159 225
253 54 53 56
213 197 198 214
212 196 155 193
191 175 188 172
27 11 45 24
167 197 214 198
197 249 213 198
39 55 52 36
26 43 10 35
18 2 17 35
46 38 198 228
249 233 235 241
5 21 1 17
38 37 7 4
7 221 30 14
59 41 52 57
94 63 78 228
58 227 52 60
28 236 252 12
219 235 203 211
14 30 6 22
13 14 49 48
6 10 26 24
5 21 65 16
180 188 76 191
62 198 5 23
41 42 34 58
168 224 240 171
189 190 53 54
238 50 24 213
187 321 217 218
444 242 353 155
32 49 35 33
187 184 32 197
42 150 52 36
58 52 55 39
49 35 51 32
34 42 36 50
36 245 39 52
215 199 47 39
