# MaxFreqExtractor features
# Channels: 2
# Frame size: 1024
# Hop size: 512
# Sample rate: 48000
# Frequencies per frame: 4
2 10 242 234
15 7 23 31
221 213 205 197
217 209 201 45
18 22 26 15
25 9 26 17
46 45 38 210
26 25 18 10
25 24 16 17
41 40 9 1
61 41 33 53
26 18 214 213
20 28 45 46
6 10 26 2
46 45 34 42
33 41 214 57
34 33 42 41
31 23 15 7
226 242 250 234
45 46 221 24
24 16 8 27
24 8 16 45
8 24 16 27
44 36 8 16
11 34 3 27
251 235 17 248
219 183 216 167
201 217 118 39
62 244 45 236
33 41 255 239
47 17 39 1
31 44 36 23
22 30 21 29
36 39 44 47
29 63 55 30
28 9 12 5
41 33 42 34
56 48 32 28
29 21 30 13
33 41 34 49
22 30 6 14
12 4 29 28
33 41 42 34
12 28 29 4
5 13 21 29
33 41 42 34
1 17 9 29
21 29 5 13
29 21 13 5
21 29 5 13
5 13 21 29
5 13 6 22
5 13 36 39
6 22 36 39
36 44 34 50
28 34 42 5
5 13 21 6
34 42 33 41
55 186 63 39
59 18 2 56
6 250 22 242
38 33 54 34
251 227 235 243
191 19 27 45
25 17 34 9
125 124 100 201
10 124 26 127
240 130 25 9
41 33 247 32
28 45 37 17
1 9 17 25
5 21 13 29
56 59 32 40
47 39 44 36
29 21 13 5
22 30 6 21
6 22 36 30
34 42 50 33
34 42 56 12
6 33 213 34
4 12 20 28
28 32 20 48
31 23 28 12
17 25 56 40
21 29 1 17
29 21 13 5
5 13 22 21
33 41 34 42
56 28 48 34
1 9 17 25
21 29 5 1
5 13 21 29
41 5 13 33
41 33 5 6
36 41 39 44
222 214 221 213
47 39 63 222
47 39 222 214
47 31 44 39
31 23 47 19
31 23 21 3
249 241 233 21
39 47 22 55
31 23 39 47
31 23 44 36
19 3 11 34
249 34 42 241
249 233 241 250
39 28 20 30
31 22 39 30
31 23 28 20
31 23 28 20
28 31 23 56
212 34 220 50
212 8 222 27
222 250 214 242
31 250 23 47
31 23 59 51
59 51 31 43
249 222 241 214
47 39 44 222
21 218 29 22
2 19 18 10
32 21 40 219
29 21 235 34
33 41 250 49
17 12 28 1
1 9 29 17
21 5 13 29
33 56 41 255
1 9 17 12
5 13 41 33
41 33 42 34
28 12 20 4
5 21 13 29
6 33 34 42
29 21 13 12
33 5 41 6
56 48 28 53
21 29 13 5
41 33 42 34
56 255 252 40
29 21 13 12
33 6 41 22
19 3 27 11
28 12 29 20
5 13 9 21
6 41 33 5
34 42 56 48
30 29 21 22
2 10 27 11
6 14 22 196
1 45 46 2
185 249 27 221
22 30 6 186
1 17 9 12
19 27 3 47
224 227 232 235
44 32 35 50
29 21 30 13
255 222 247 214
21 29 13 5
5 21 29 13
21 5 13 29
29 35 21 43
29 30 21 22
214 222 198 206
35 43 42 34
47 39 250 245
34 33 222 41
2 10 18 26
222 214 206 198
44 36 217 244
40 32 17 1
23 31 19 27
21 29 235 27
21 5 22 13
29 21 13 5
233 225 5 29
42 45 34 37
25 9 56 238
13 5 9 18
19 255 3 6
41 33 42 58
34 33 42 58
42 34 58 41
25 157 17 229
29 21 33 5
17 25 21 29
25 17 9 1
17 25 18 1
21 29 17 25
21 5 29 1
1 5 17 21
5 21 6 13
5 226 21 234
5 6 1 21
5 29 21 13
39 55 6 63
58 36 39 32
174 216 2 208
45 37 245 253
19 3 27 11
194 210 218 225
229 237 19 27
16 55 63 47
216 208 203 219
15 3 19 7
2 10 22 6
46 38 54 62
12 21 29 4
12 4 15 28
12 4 20 28
56 48 32 40
33 6 41 22
21 29 46 5
34 56 42 48
5 13 22 224
12 4 45 28
2 10 33 41
9 25 17 1
56 48 33 40
29 21 13 30
34 33 28 42
46 38 6 16
198 213 206 221
32 40 35 43
12 190 28 4
16 24 253 19
35 43 32 40
39 8 55 42
6 14 32 22
10 2 26 18
46 38 62 54
219 211 32 40
29 21 5 13
33 34 42 41
2 18 7 10
2 6 10 222
22 41 6 33
29 21 227 235
33 34 41 42
9 13 12 21
34 12 42 4
9 5 1 13
28 12 4 56
22 6 30 14
21 29 12 235
33 41 34 42
227 1 235 4
33 41 6 22
29 21 1 9
33 41 5 6
12 28 4 17
22 5 30 13
34 42 56 50
5 21 13 29
34 42 33 56
1 9 21 5
33 41 34 42
29 21 235 9
41 33 42 34
12 1 17 4
5 13 21 29
34 33 42 56
29 21 13 5
41 33 42 34
56 28 12 17
5 21 13 29
34 33 42 41
21 29 1 9
33 41 5 34
28 56 20 12
21 5 29 13
33 41 42 34
29 21 12 1
5 13 21 29
34 33 42 41
1 9 17 21
33 41 5 6
34 42 56 33
21 29 5 13
33 41 42 34
28 12 56 17
21 5 13 29
34 33 42 41
29 21 9 1
33 41 5 42
28 12 56 4
13 21 5 29
33 41 34 42
29 21 9 1
5 13 21 29
33 41 42 34
12 1 17 9
5 21 13 29
34 33 42 41
21 29 9 5
34 33 42 56
21 5 13 29
34 12 4 28
5 6 22 41
12 28 4 20
41 33 5 13
34 42 56 40
21 29 5 13
33 41 42 34
56 48 34 32
22 30 6 5
12 37 45 227
15 7 23 31
33 6 34 49
2 1 5 6
149 133 397 184
139 136 7 161
177 6 412 2
368 373 322 411
409 408 411 393
33 34 6 494
499 451 448 2
216 320 219 328
357 345 49 317
373 374 366 309
339 413 370 375
324 327 321 362
44 47 289 244
44 47 19 60
30 22 29 215
30 47 38 39
29 21 12 4
45 12 40 4
38 213 46 221
32 48 40 56
221 205 213 197
56 40 32 48
28 20 12 4
28 56 20 40
12 28 20 4
12 4 28 20
12 28 4 20
34 28 42 4
6 33 34 41
6 33 41 22
6 2 10 22
34 33 6 206
6 22 33 14
6 22 33 41
2 6 22 10
41 33 6 22
2 10 22 6
41 33 2 22
2 10 6 22
6 22 33 206
213 6 221 33
20 28 34 4
28 20 4 12
12 20 4 28
12 4 28 20
12 4 20 28
15 7 12 23
15 46 7 38
15 7 2 46
234 226 242 206
12 31 4 20
33 41 40 34
17 25 1 43
47 44 31 39
47 39 63 55
250 234 226 242
241 233 249 225
215 223 207 16
59 31 51 23
44 47 36 39
250 249 222 185
30 22 14 6
35 43 32 40
204 212 47 39
234 250 226 242
47 44 60 36
4 12 8 16
241 249 225 233
229 237 215 223
31 23 15 7
30 22 29 14
222 234 198 250
15 7 215 223
3 19 31 44
26 14 6 18
4 12 20 56
249 241 225 233
32 40 56 4
44 36 47 39
215 212 223 199
15 31 7 23
1 8 9 16
31 23 43 3
238 230 4 222
198 197 23 31
23 7 31 15
242 234 226 250
15 7 31 23
221 213 205 206
198 214 197 213
23 15 31 7
205 206 225 221
234 226 242 250
15 31 7 23
205 221 206 222
206 222 198 242
15 7 31 3
7 15 23 31
23 7 54 31
198 206 234 222
7 15 23 31
213 221 205 249
7 45 46 15
226 234 242 225
12 4 15 7
15 46 7 45
198 234 226 206
12 4 23 20
170 234 226 242
59 7 40 23
206 222 234 142
15 7 31 23
213 221 20 249
7 15 222 214
15 7 31 23
205 221 233 206
7 15 3 251
28 20 12 4
7 46 38 41
198 213 214 197
12 4 28 20
226 170 234 162
51 59 40 205
7 15 2 10
23 31 7 15
234 198 213 206
15 7 31 23
7 15 43 59
23 31 15 7
197 213 205 221
7 15 43 35
12 20 28 4
213 198 234 221
15 7 23 31
234 206 198 213
15 7 23 31
234 242 250 226
7 23 15 31
3 11 34 42
7 23 15 31
213 221 206 241
15 7 11 3
33 34 41 42
234 226 197 198
15 7 23 18
221 213 205 206
3 19 27 11
205 197 221 213
41 33 57 34
28 20 12 4
15 7 23 31
221 213 205 197
15 7 23 46
197 20 225 241
15 7 198 222
38 46 7 23
1 9 209 192
138 60 52 154
226 209 225 234
2 7 19 23
4 54 212 46
37 53 38 54
7 15 23 31
242 234 241 250
16 8 24 19
24 16 8 25
140 201 234 156
31 23 28 12
199 222 207 215
11 24 8 16
197 1 205 133
57 41 33 49
47 39 60 63
35 43 15 12
34 50 58 42
43 28 35 20
40 32 38 54
36 44 35 43
253 245 47 63
36 44 52 35
40 19 27 32
43 35 18 215
213 221 31 229
46 36 52 44
63 55 45 60
2 26 18 10
40 238 32 189
43 18 35 2
31 15 23 7
216 208 232 168
15 11 3 19
2 43 18 10
16 44 36 24
32 40 182 181
6 3 14 15
30 22 14 6
16 18 26 12
19 27 3 253
44 36 52 60
34 42 33 41
18 26 2 10
40 32 18 35
221 27 23 19
31 15 3 23
18 22 26 6
16 24 8 19
27 19 24 43
204 220 196 212
200 236 216 192
4 7 12 20
27 19 26 3
26 43 10 18
7 41 15 23
15 7 12 47
6 14 22 5
45 61 37 53
40 32 45 37
46 38 24 45
38 46 45 63
36 52 236 200
16 24 8 3
209 217 27 193
26 18 10 2
6 221 14 15
45 14 6 46
18 2 26 10
18 26 10 2
24 16 19 27
24 16 27 19
38 46 7 15
12 3 4 19
27 209 19 238
34 42 50 209
32 229 22 237
36 44 52 60
47 45 46 39
45 24 16 37
46 60 38 52
38 46 24 16
24 8 16 12
209 217 27 3
33 209 217 34
209 217 193 201
18 26 10 2
24 16 239 175
46 38 16 24
10 15 18 26
24 16 242 250
27 19 11 3
5 21 33 41
3 11 27 19
25 17 9 1
4 12 20 7
197 225 226 205
43 35 51 59
62 54 46 225
16 24 19 27
2 18 46 10
15 7 23 31
12 4 15 7
14 198 30 6
43 40 35 58
39 37 55 421
14 18 30 414
53 471 37 54
164 36 78 183
248 284 182 251
32 283 35 15
138 76 133 134
3 164 132 194
10 153 145 398
27 390 168 18
53 18 35 17
15 7 2 10
15 23 12 31
197 198 234 206
226 234 206 205
7 15 43 35
7 15 23 31
23 31 7 15
221 206 213 214
15 7 3 11
15 7 23 31
23 31 7 15
23 7 31 15
7 15 23 31
7 15 4 23
241 242 225 249
7 15 23 31
35 7 43 32
197 225 241 213
197 225 241 198
15 7 23 31
18 26 2 6
33 41 16 34
221 213 222 206
7 27 15 11
25 26 21 5
41 33 42 34
33 57 58 41
242 255 226 198
15 26 7 23
213 221 198 197
33 7 41 15
205 197 221 213
15 7 43 35
31 23 7 15
15 2 222 206
7 15 23 31
23 38 46 60
206 198 197 234
234 226 198 206
15 242 7 234
15 7 3 11
23 7 31 15
27 19 3 11
40 32 221 6
206 222 198 214
179 171 187 221
37 45 38 53
27 19 45 33
241 225 249 226
246 254 253 158
15 7 31 23
27 19 3 31
213 221 249 222
198 221 206 213
217 175 170 209
38 46 45 37
38 46 54 34
45 225 61 37
52 242 246 60
27 3 15 31
26 6 22 18
46 45 38 34
45 33 34 61
18 15 26 7
26 18 10 6
45 37 61 55
45 37 226 234
18 26 15 10
222 221 206 213
24 16 27 19
197 205 34 33
234 206 198 226
15 7 23 18
213 24 221 214
3 27 19 11
42 34 33 41
45 15 37 7
15 3 11 7
6 22 14 30
23 31 15 7
206 222 214 198
241 249 213 233
205 197 221 213
41 42 201 58
2 10 15 7
225 233 45 133
15 7 54 46
24 27 19 16
3 213 235 11
15 7 12 4
30 22 58 34
45 212 225 220
15 7 2 10
24 16 8 2
27 24 19 16
7 15 54 46
33 41 2 37
23 31 226 7
23 15 7 27
6 22 30 14
24 27 16 19
45 46 53 37
33 41 55 34
47 39 44 36
34 33 42 50
7 23 31 15
19 3 27 11
22 6 30 14
20 12 4 28
46 38 54 22
35 43 57 29
7 15 141 133
13 5 29 3
32 40 6 22
40 38 32 56
10 2 3 216
42 34 32 216
23 31 20 7
7 23 15 31
43 59 53 35
226 234 225 250
212 25 220 40
7 15 214 3
214 30 222 204
23 15 7 222
15 7 12 4
4 12 20 28
47 39 63 31
31 7 15 23
15 7 31 35
35 59 43 32
14 6 30 22
4 60 7 55
249 241 233 225
222 214 206 198
43 53 35 61
219 233 46 225
26 18 47 10
47 44 16 39
27 19 43 26
15 7 31 3
30 2 10 18
15 3 7 11
12 4 35 43
55 52 39 3
43 35 40 32
33 41 32 40
12 4 21 29
5 13 1 9
12 34 28 42
6 2 22 14
1 9 2 10
7 6 15 14
34 6 42 50
239 231 247 59
6 2 14 10
59 33 43 57
8 24 20 12
8 3 11 16
46 38 33 44
201 193 209 217
54 62 46 38
24 16 8 213
14 6 30 13
210 218 202 224
33 41 63 55
46 38 54 62
60 254 44 52
10 2 27 26
4 12 197 16
171 221 205 197
3 19 27 11
212 220 228 196
208 203 219 184
201 209 193 217
27 19 11 24
44 36 5 13
16 24 8 14
19 27 245 237
7 23 15 31
48 46 56 43
200 192 203 195
55 63 39 45
3 6 14 11
1 17 5 9
2 10 42 34
40 251 248 32
238 217 202 254
52 46 60 36
46 38 45 54
193 218 238 201
217 201 248 209
20 12 28 4
45 37 53 61
2 18 14 10
210 218 202 194
238 27 230 237
221 249 241 213
198 214 222 241
1 5 9 13
8 24 4 16
238 230 8 192
52 8 60 44
19 27 11 3
212 140 248 240
29 13 5 21
30 21 29 14
36 52 21 44
33 41 42 34
41 55 63 33
10 2 6 26
30 14 6 22
214 198 213 2
42 221 205 34
20 213 28 4
12 4 213 20
15 7 31 23
10 2 26 22
206 198 234 205
25 24 4 28
12 4 20 46
7 23 15 54
10 2 18 26
234 206 226 34
34 28 33 42
34 50 33 56
234 33 233 250
197 213 250 234
2 14 18 6
42 34 41 37
20 4 8 24
12 213 197 28
28 12 48 56
12 4 20 28
41 57 15 33
213 10 214 250
213 197 34 198
20 28 12 4
12 4 28 20
207 223 216 32
38 34 46 50
56 28 48 20
12 28 34 56
20 4 205 28
45 34 48 221
6 14 22 10
4 42 58 213
12 4 40 56
12 15 46 28
33 41 42 57
10 2 26 6
247 231 239 255
228 244 231 132
234 226 242 250
1 9 5 25
41 57 33 38
224 235 227 196
41 195 203 251
224 160 18 26
247 226 231 198
6 14 22 30
34 50 221 56
252 244 228 192
227 34 199 243
4 48 12 56
8 12 4 16
1 9 2 10
56 40 48 34
208 216 192 244
6 2 14 1
228 236 192 239
34 6 5 13
218 251 210 46
231 236 239 228
227 235 251 243
217 209 13 193
54 38 46 62
221 213 205 128
20 28 42 5
28 20 12 31
213 221 197 205
41 33 42 16
33 41 232 248
251 13 5 248
58 50 2 42
167 183 175 55
46 34 45 37
7 15 2 10
22 6 30 14
24 8 33 27
9 1 5 42
210 49 228 57
16 24 38 244
1 9 17 45
63 55 19 27
38 46 60 52
248 156 232 140
19 27 194 11
46 33 38 57
13 5 1 45
24 46 38 16
44 60 209 217
215 24 199 227
61 255 46 45
29 21 5 13
45 46 44 36
46 45 38 37
44 228 21 29
17 25 1 9
45 61 46 62
45 44 37 46
216 37 45 208
37 45 29 44
45 37 46 216
38 46 29 30
26 15 7 10
15 31 49 35
239 208 216 167
2 10 3 27
28 56 40 48
35 7 15 51
59 43 51 33
34 55 57 42
207 204 199 223
206 198 204 222
14 6 40 30
8 24 16 11
7 15 2 35
15 7 12 4
197 213 205 221
15 7 31 23
20 28 4 12
47 39 32 17
31 23 56 59
31 249 171 153
249 185 241 39
11 215 27 3
25 17 9 1
28 31 59 56
26 18 10 25
215 223 140 143
225 233 234 226
44 36 60 47
39 47 36 22
25 17 215 9
215 223 151 207
44 47 50 219
45 39 55 47
56 219 34 40
59 51 56 43
